 Run started: Mon, 15 Jul 2019 15:33:30 +0100

 Atomic calculation performed for C: 1s2 2s2 2p2

 Converged in 45 iterations to an ae energy of -1027.632 eV

   | Pseudopotential Report - Date of generation 15-07-2019   |
   | Element: C Ionic charge:  4.00 Level of theory: PBE      |
   | Atomic Solver: Koelling-Harmon                           |
   |               Reference Electronic Structure             |
   |         Orbital         Occupation         Energy        |
   |            2s              2.000           -0.505        |
   |            2p              2.000           -0.194        |
   |                 Pseudopotential Definition               |
   |        Beta     l      e      Rc     scheme   norm       |
   |          1      0   -0.505   1.395     qc      0         |
   |          2      0    0.250   1.395     qc      0         |
   |          3      1   -0.194   1.395     qc      0         |
   |          4      1    0.250   1.395     qc      0         |
   |         loc     2    0.000   1.395     pn      0         |
   | Augmentation charge Rinner = 0.983                       |
   | Partial core correction Rc = 0.983                       |
   | "2|1.4|10|12|13|20:21(qc=7)"                             |
   |      Author: Chris J. Pickard, Cambridge University      |

 Pseudo atomic calculation performed for C 2s2 2p2

 Converged in 17 iterations to a total energy of -148.5198 eV
 Calculation not parallelised.

 ************************************ Title ************************************

 ***************************** General Parameters ******************************

 output verbosity                               : normal  (1)
 write checkpoint data to                       : C.check
 type of calculation                            : geometry optimization
 stress calculation                             : off
 density difference calculation                 : off
 electron localisation func (ELF) calculation   : off
 Hirshfeld analysis                             : off
 molecular orbital projected DOS                : off
 deltaSCF calculation                           : off
 unlimited duration calculation
 timing information                             : on
 write extra output files                       : on
 write final potential to formatted file        : off
 write final density to formatted file          : off
 write BibTeX reference list                    : on
 write OTFG pseudopotential files               : on
 write electrostatic potential file             : on
 write bands file                               : on
 checkpoint writing                             : both castep_bin and check files

 output         length unit                     : A
 output           mass unit                     : amu
 output           time unit                     : ps
 output         charge unit                     : e
 output           spin unit                     : hbar/2
 output         energy unit                     : eV
 output          force unit                     : eV/A
 output       velocity unit                     : A/ps
 output       pressure unit                     : GPa
 output     inv_length unit                     : 1/A
 output      frequency unit                     : cm-1
 output force constant unit                     : eV/A**2
 output         volume unit                     : A**3
 output   IR intensity unit                     : (D/A)**2/amu
 output         dipole unit                     : D
 output         efield unit                     : eV/A/e
 output        entropy unit                     : J/mol/K

 wavefunctions paging                           : none
 random number generator seed                   : randomised (153331077)
 data distribution                              : optimal for this architecture
 optimization strategy                          : maximize speed(+++)

 *********************** Exchange-Correlation Parameters ***********************

 using functional                               : Perdew Burke Ernzerhof
 relativistic treatment                         : Koelling-Harmon
 DFT+D: Semi-empirical dispersion correction    : off

 ************************* Pseudopotential Parameters **************************

 pseudopotential representation                 : reciprocal space
 <beta|phi> representation                      : reciprocal space
 spin-orbit coupling                            : off

 **************************** Basis Set Parameters *****************************

 basis set accuracy                             : EXTREME
 plane wave basis set cut-off                   :   565.9968   eV
 size of standard grid                          :     1.7500
 size of   fine   grid                          :     4.0000
 size of   fine   gmax                          :    48.7535   1/A
 finite basis set correction                    : automatic
 number of sample energies                      :          3
           sample  spacing                      :     5.0000   eV

 **************************** Electronic Parameters ****************************

 number of  electrons                           :  8.000
 net charge of system                           :  0.000
 treating system as non-spin-polarized
 number of bands                                :          8

 ********************* Electronic Minimization Parameters **********************

 Method: Treating system as metallic with density mixing treatment of electrons,
         and number of  SD  steps               :          1
         and number of  CG  steps               :          4

 total energy / atom convergence tol.           : 0.1000E-04   eV
 eigen-energy convergence tolerance             : 0.1000E-05   eV
 max force / atom convergence tol.              : ignored
 convergence tolerance window                   :          3   cycles
 max. number of SCF cycles                      :         30
 number of fixed-spin iterations                :         10
 smearing scheme                                : Gaussian
 smearing width                                 : 0.2000       eV
 Fermi energy convergence tolerance             : 0.2721E-13   eV
 periodic dipole correction                     : NONE

 ************************** Density Mixing Parameters **************************

 density-mixing scheme                          : Broyden
 max. length of mixing history                  :         20
 charge density mixing amplitude                : 0.8000

 *********************** Population Analysis Parameters ************************

 Population analysis with cutoff                :  3.000       A
 Population analysis output                     : summary and pdos components

 ********************** Geometry Optimization Parameters ***********************

 optimization method                            : LBFGS
 max. no. of LBFGS updates                      : unbounded
 variable cell method                           : fixed basis quality
 max. number of steps                           :         30
 estimated bulk modulus                         :  500.0       GPa
 estimated <frequency>                          :  1668.       cm-1
 geom line minimiser                            : on
 with line minimiser tolerance                  :     0.4000
 total energy convergence tolerance             : 0.2000E-04   eV/atom
        max ionic |force| tolerance             : 0.5000E-01   eV/A
 max ionic |displacement| tolerance             : 0.1000E-02   A
   max |stress component| tolerance             : 0.1000       GPa
 convergence tolerance window                   :          2   steps
 backup results every                           :          5   steps
 write geom trajectory file                     : on

                                      Unit Cell
        Real Lattice(A)                      Reciprocal Lattice(1/A)
     1.7833030     1.7833030     0.0000000        1.761670705   1.761670705  -1.761670705
     1.7833030     0.0000000     1.7833030        1.761670705  -1.761670705   1.761670705
     0.0000000     1.7833030     1.7833030       -1.761670705   1.761670705   1.761670705

                       Lattice parameters(A)       Cell Angles
                    a =      2.521971          alpha =   60.000000
                    b =      2.521971          beta  =   60.000000
                    c =      2.521971          gamma =   60.000000

                       Current cell volume =            11.342412       A**3
                                   density =             2.117839   AMU/A**3
                                           =             3.516754     g/cm^3

                                     Cell Contents
                         Total number of ions in cell =    2
                      Total number of species in cell =    1
                        Max number of any one species =    2

            x  Element    Atom        Fractional coordinates of atoms  x
            x            Number           u          v          w      x
            x  C            1         0.000000   0.000000   0.000000   x
            x  C            2         0.250000   0.250000   0.250000   x

                         No user defined ionic velocities

                                   Details of Species

                               Mass of species in AMU
                                    C   12.0107000

                          Electric Quadrupole Moment (Barn)
                                    C    0.0332700 Isotope 11

                          Files used for pseudopotentials:
                                    C 2|1.4|10|12|13|20:21(qc=7)

                              k-Points For BZ Sampling
                       MP grid size for SCF calculation is  5  5  5
                            with an offset of   0.000  0.000  0.000
                       Number of kpoints used =            10

                               Symmetry and Constraints

                      Maximum deviation from symmetry =  0.00000         ANG

                      Number of symmetry operations   =          48
                      Number of ionic constraints     =           3
                      Point group of crystal =    32: Oh, m-3m, 4/m -3 2/m
                      Space group of crystal =   227: Fd-3m, F 4d 2 3 -1d

             Set iprint > 1 for details on symmetry rotations/translations

                         Centre of mass is constrained
             Set iprint > 1 for details of linear ionic constraints

                         Number of cell constraints= 5
                         Cell constraints are:  1 1 1 0 0 0

                         External pressure/stress (GPa)
                          0.00000   0.00000   0.00000
                                    0.00000   0.00000
                                              0.00000

Final energy, E             =  -315.2489680687     eV
Final free energy (E-TS)    =  -315.2489680687     eV
(energies not corrected for finite basis set)

NB est. 0K energy (E-0.5TS)      =  -315.2489680687     eV

Calculating total energy with cut-off of  560.997 eV.
------------------------------------------------------------------------ <-- SCF
SCF loop      Energy           Fermi           Energy gain       Timer   <-- SCF
                               energy          per atom          (sec)   <-- SCF
------------------------------------------------------------------------ <-- SCF
Initial  -3.15248968E+002  0.00000000E+000                         8.69  <-- SCF
      1  -3.15249571E+002  1.17067021E+001   3.01338257E-004       8.87  <-- SCF
      2  -3.15249571E+002  1.17067021E+001   9.99897072E-009       9.41  <-- SCF
      3  -3.15249571E+002  1.17067873E+001   1.76663806E-007       9.95  <-- SCF
      4  -3.15249571E+002  1.17067860E+001   7.11670006E-009      10.49  <-- SCF
------------------------------------------------------------------------ <-- SCF

[...]

Calculating total energy with cut-off of  565.997 eV.
------------------------------------------------------------------------ <-- SCF
SCF loop      Energy           Fermi           Energy gain       Timer   <-- SCF
                               energy          per atom          (sec)   <-- SCF
------------------------------------------------------------------------ <-- SCF
Initial  -3.15249571E+002  0.00000000E+000                        11.24  <-- SCF
      1  -3.15250230E+002  1.17067825E+001   3.29343551E-004      11.44  <-- SCF
      2  -3.15250230E+002  1.17067825E+001   7.94505349E-009      11.98  <-- SCF
      3  -3.15250231E+002  1.17068781E+001   2.62364428E-007      12.52  <-- SCF
      4  -3.15250231E+002  1.17068781E+001   9.56579752E-009      13.06  <-- SCF
------------------------------------------------------------------------ <-- SCF

[...]

 For future reference: finite basis dEtot/dlog(Ecut) =      -0.053446eV
 Total energy corrected for finite basis set =    -315.250032 eV

 *********** Symmetrised Stress Tensor ***********
 *          Cartesian components (GPa)           *
 *             x             y             z     *
 *  x     -1.859497      0.000000     -0.000000  *
 *  y      0.000000     -1.859497      0.000000  *
 *  z     -0.000000      0.000000     -1.859497  *
 *  Pressure:    1.8595                          *
 LBFGS: finished iteration     0 with enthalpy= -3.15250032E+002 eV

 +-----------+-----------------+-----------------+------------+-----+ <-- LBFGS
 | Parameter |      value      |    tolerance    |    units   | OK? | <-- LBFGS
 +-----------+-----------------+-----------------+------------+-----+ <-- LBFGS
 |  dE/ion   |   0.000000E+000 |   2.000000E-005 |         eV | No  | <-- LBFGS
 |   Smax    |   1.859497E+000 |   1.000000E-001 |        GPa | No  | <-- LBFGS
 +-----------+-----------------+-----------------+------------+-----+ <-- LBFGS

 Starting LBFGS iteration          1 ...

 +------------+-------------+-------------+-----------------+ <-- min LBFGS
 |    Step    |   lambda    |   F.delta'  |    enthalpy     | <-- min LBFGS
 +------------+-------------+-------------+-----------------+ <-- min LBFGS
 |  previous  |    0.000000 |    0.008379 |     -315.250032 | <-- min LBFGS
 +------------+-------------+-------------+-----------------+ <-- min LBFGS

 LBFGS: starting iteration         1 with trial guess (lambda=  1.000000)

[...]

                Current cell volume =            11.384647 A**3
                            density =             2.109982 amu/A**3
                                    =             3.503708 g/cm^3

------------------------------------------------------------------------ <-- SCF
SCF loop      Energy           Fermi           Energy gain       Timer   <-- SCF
                               energy          per atom          (sec)   <-- SCF
------------------------------------------------------------------------ <-- SCF
Initial  -3.15249957E+002  0.00000000E+000                        15.00  <-- SCF
      1  -3.15250460E+002  1.16345861E+001   2.51610453E-004      15.23  <-- SCF
      2  -3.15250461E+002  1.16345861E+001   1.18104990E-007      15.78  <-- SCF
      3  -3.15250373E+002  1.16478413E+001  -4.37853711E-005      16.39  <-- SCF
      4  -3.15250372E+002  1.16496983E+001  -6.74957327E-007      16.93  <-- SCF
      5  -3.15250372E+002  1.16498405E+001   1.02666859E-008      17.46  <-- SCF
------------------------------------------------------------------------ <-- SCF

[...]

 *********** Symmetrised Stress Tensor ***********
 *          Cartesian components (GPa)           *
 *             x             y             z     *
 *  x     -0.225339     -0.000000     -0.000000  *
 *  y     -0.000000     -0.225339     -0.000000  *
 *  z     -0.000000     -0.000000     -0.225339  *
 *  Pressure:    0.2253                          *

 +------------+-------------+-------------+-----------------+ <-- min LBFGS
 |    Step    |   lambda    |   F.delta'  |    enthalpy     | <-- min LBFGS
 +------------+-------------+-------------+-----------------+ <-- min LBFGS
 |  previous  |    0.000000 |    0.008379 |     -315.250032 | <-- min LBFGS
 | trial step |    1.000000 |    0.001018 |     -315.250305 | <-- min LBFGS
 +------------+-------------+-------------+-----------------+ <-- min LBFGS

 LBFGS: finished iteration     1 with enthalpy= -3.15250305E+002 eV

 +-----------+-----------------+-----------------+------------+-----+ <-- LBFGS
 | Parameter |      value      |    tolerance    |    units   | OK? | <-- LBFGS
 +-----------+-----------------+-----------------+------------+-----+ <-- LBFGS
 |  dE/ion   |   1.367905E-004 |   2.000000E-005 |         eV | No  | <-- LBFGS
 |   Smax    |   2.253393E-001 |   1.000000E-001 |        GPa | No  | <-- LBFGS
 +-----------+-----------------+-----------------+------------+-----+ <-- LBFGS

 Starting LBFGS iteration          2 ...

 +------------+-------------+-------------+-----------------+ <-- min LBFGS
 |    Step    |   lambda    |   F.delta'  |    enthalpy     | <-- min LBFGS
 +------------+-------------+-------------+-----------------+ <-- min LBFGS
 |  previous  |    0.000000 |    0.001018 |     -315.250305 | <-- min LBFGS
 +------------+-------------+-------------+-----------------+ <-- min LBFGS

 LBFGS: starting iteration         2 with trial guess (lambda=  1.000000)

[...]

------------------------------------------------------------------------ <-- SCF
SCF loop      Energy           Fermi           Energy gain       Timer   <-- SCF
                               energy          per atom          (sec)   <-- SCF
------------------------------------------------------------------------ <-- SCF
Initial  -3.15250350E+002  0.00000000E+000                        19.42  <-- SCF
      1  -3.15250399E+002  1.16399578E+001   2.45822032E-005      19.64  <-- SCF
      2  -3.15250399E+002  1.16399578E+001   2.89898564E-008      20.18  <-- SCF
      3  -3.15250397E+002  1.16417555E+001  -8.22365663E-007      20.72  <-- SCF
      4  -3.15250397E+002  1.16420331E+001  -1.13533046E-008      21.26  <-- SCF
------------------------------------------------------------------------ <-- SCF

Final energy, E             =  -315.2503972648     eV
Final free energy (E-TS)    =  -315.2503972648     eV
(energies not corrected for finite basis set)

NB est. 0K energy (E-0.5TS)      =  -315.2503972648     eV

[...]

 +------------+-------------+-------------+-----------------+ <-- min LBFGS
 |    Step    |   lambda    |   F.delta'  |    enthalpy     | <-- min LBFGS
 +------------+-------------+-------------+-----------------+ <-- min LBFGS
 |  previous  |    0.000000 |    0.001018 |     -315.250305 | <-- min LBFGS
 | trial step |    1.000000 |    0.000012 |     -315.250303 | <-- min LBFGS
 +------------+-------------+-------------+-----------------+ <-- min LBFGS

 LBFGS: finished iteration     2 with enthalpy= -3.15250303E+002 eV

 +-----------+-----------------+-----------------+------------+-----+ <-- LBFGS
 | Parameter |      value      |    tolerance    |    units   | OK? | <-- LBFGS
 +-----------+-----------------+-----------------+------------+-----+ <-- LBFGS
 |  dE/ion   |   9.191376E-007 |   2.000000E-005 |         eV | Yes | <-- LBFGS
 |   Smax    |   2.689635E-003 |   1.000000E-001 |        GPa | Yes | <-- LBFGS
 +-----------+-----------------+-----------------+------------+-----+ <-- LBFGS

 LBFGS: Geometry optimization completed successfully.

 LBFGS: Final Configuration:

                                      Unit Cell
        Real Lattice(A)              Reciprocal Lattice(1/A)
     1.7858194     1.7858194    -0.0000000        1.759188334   1.759188334  -1.759188334
     1.7858194    -0.0000000     1.7858194        1.759188334  -1.759188334   1.759188334
    -0.0000000     1.7858194     1.7858194       -1.759188334   1.759188334   1.759188334

                       Lattice parameters(A)       Cell Angles
                    a =      2.525530          alpha =   60.000000
                    b =      2.525530          beta  =   60.000000
                    c =      2.525530          gamma =   60.000000

                Current cell volume =            11.390495 A**3
                            density =             2.108899 amu/A**3
                                    =             3.501909 g/cm^3

 LBFGS: Final Enthalpy     = -3.15250303E+002 eV
 LBFGS: Final bulk modulus unchanged from initial value

 ******************************** Symmetrised Forces ********************************
 *                           Cartesian components (eV/A)                            *
 *                         x                    y                    z              *
 * C               1      0.00000              0.00000              0.00000         *
 * C               2      0.00000              0.00000              0.00000         *

 *********** Symmetrised Stress Tensor ***********
 *          Cartesian components (GPa)           *
 *             x             y             z     *
 *  x     -0.002690     -0.000000      0.000000  *
 *  y     -0.000000     -0.002690      0.000000  *
 *  z      0.000000      0.000000     -0.002690  *
 *  Pressure:    0.0027                          *

 Pseudo atomic calculation performed for C 2s2 2p2

 Converged in 17 iterations to a total energy of -148.5198 eV
Charge spilling parameter for spin component 1 = 0.36%

            Orbital Populations
     Ion    Atom   Orbital             Charge
      C     1      S                    1.093
      C     1      Px                   0.949
      C     1      Py                   0.981
      C     1      Pz                   0.977
      C     2      S                    1.093
      C     2      Px                   0.949
      C     2      Py                   0.981
      C     2      Pz                   0.977
                           Total:       8.000

     Atomic Populations (Mulliken)
Species          Ion     s      p      d      f     Total  Charge (e)
  C               1     1.09   2.91   0.00   0.00   4.00     0.00
  C               2     1.09   2.91   0.00   0.00   4.00     0.00

                 Bond                   Population      Length (A)
               C 1 -- C 2                    2.99        1.54656

Writing analysis data to C.castep_bin

Writing model to C.check

 A BibTeX formatted list of references used in this run has been written to
 C.bib

Initialisation time =      2.82 s
Calculation time    =     20.57 s
Finalisation time   =      0.25 s
Total time          =     23.64 s