 Run started: Thu, 11 Jul 2019 14:08:31 +0100
 Info: number of up-spin electrons is not equal to the
       number of down-spins but spin_polarized=false
     - consider setting spin_polarized=true.

 Atomic calculation performed for Ag:

 Exceeded max iterations: converged to 0.000965452 eV
 The ae energy is -144698.585 eV

   | Pseudopotential Report - Date of generation 11-07-2019   |
   | Element: Ag Ionic charge: 19.00 Level of theory: RSCAN   |
   | Atomic Solver: Koelling-Harmon                           |
   |               Reference Electronic Structure             |
   |         Orbital         Occupation         Energy        |
   |            4s              2.000           -3.592        |
   |            4p              6.000           -2.220        |
   |            4d             10.000           -0.286        |
   |            5s              1.000           -0.162        |
   |                 Pseudopotential Definition               |
   |        Beta     l      e      Rc     scheme   norm       |
   |          1      0   -3.592   1.504     qc      0         |
   |          2      0   -0.162   1.504     qc      0         |
   |          3      0    0.250   1.504     qc      0         |
   |          4      1   -2.220   1.504     qc      0         |
   |          5      1    0.250   1.504     qc      0         |
   |          6      2   -0.286   1.504     qc      0         |
   |          7      2    0.250   1.504     qc      0         |
   |         loc     3    0.000   1.504     pn      0         |
   | Augmentation charge Rinner = 0.798                       |
   | Partial core correction Rc = 0.798                       |
   | "3|1.5|1.5|0.8|15|17|19|40U:50:41:42(qc=7)"              |
   |      Author: Chris J. Pickard, Cambridge University      |

 Pseudo atomic calculation performed for Ag 4s2 4p6 4d10 5s1

 Converged in 40 iterations to a total energy of -4286.0810 eV
 Calculation not parallelised.

 ************************************ Title ************************************

 ***************************** General Parameters ******************************

 output verbosity                               : normal  (1)
 write checkpoint data to                       : Ag.check
 type of calculation                            : geometry optimization
 stress calculation                             : off
 density difference calculation                 : off
 electron localisation func (ELF) calculation   : off
 Hirshfeld analysis                             : off
 molecular orbital projected DOS                : off
 deltaSCF calculation                           : off
 unlimited duration calculation
 timing information                             : on
 write extra output files                       : on
 write final potential to formatted file        : off
 write final density to formatted file          : off
 write BibTeX reference list                    : on
 write OTFG pseudopotential files               : on
 write electrostatic potential file             : on
 write bands file                               : on
 checkpoint writing                             : both castep_bin and check files

 output         length unit                     : A
 output           mass unit                     : amu
 output           time unit                     : ps
 output         charge unit                     : e
 output           spin unit                     : hbar/2
 output         energy unit                     : eV
 output          force unit                     : eV/A
 output       velocity unit                     : A/ps
 output       pressure unit                     : GPa
 output     inv_length unit                     : 1/A
 output      frequency unit                     : cm-1
 output force constant unit                     : eV/A**2
 output         volume unit                     : A**3
 output   IR intensity unit                     : (D/A)**2/amu
 output         dipole unit                     : D
 output         efield unit                     : eV/A/e
 output        entropy unit                     : J/mol/K

 wavefunctions paging                           : none
 random number generator seed                   : randomised (140831465)
 data distribution                              : optimal for this architecture
 optimization strategy                          : maximize speed(+++)

 *********************** Exchange-Correlation Parameters ***********************

 using functional                               : RSCAN
 relativistic treatment                         : Koelling-Harmon
 DFT+D: Semi-empirical dispersion correction    : off

 ************************* Pseudopotential Parameters **************************

 pseudopotential representation                 : reciprocal space
 <beta|phi> representation                      : reciprocal space
 spin-orbit coupling                            : off

 **************************** Basis Set Parameters *****************************

 basis set accuracy                             : EXTREME
 plane wave basis set cut-off                   :   827.2261   eV
 size of standard grid                          :     1.7500
 size of   fine   grid                          :     4.0000
 size of   fine   gmax                          :    58.9401   1/A
 finite basis set correction                    : automatic
 number of sample energies                      :          3
           sample  spacing                      :     5.0000   eV

 **************************** Electronic Parameters ****************************

 number of  electrons                           :  19.00
 net charge of system                           :  0.000
 treating system as non-spin-polarized
 number of bands                                :         14

 ********************* Electronic Minimization Parameters **********************

 Method: Treating system as metallic with density mixing treatment of electrons,
         and number of  SD  steps               :          1
         and number of  CG  steps               :          4

 total energy / atom convergence tol.           : 0.1000E-04   eV
 eigen-energy convergence tolerance             : 0.1000E-05   eV
 max force / atom convergence tol.              : ignored
 convergence tolerance window                   :          3   cycles
 max. number of SCF cycles                      :         30
 number of fixed-spin iterations                :         10
 smearing scheme                                : Gaussian
 smearing width                                 : 0.2000       eV
 Fermi energy convergence tolerance             : 0.2721E-13   eV
 periodic dipole correction                     : NONE

 ************************** Density Mixing Parameters **************************

 density-mixing scheme                          : Broyden
 max. length of mixing history                  :         20
 charge density mixing amplitude                : 0.8000

 *********************** Population Analysis Parameters ************************

 Population analysis with cutoff                :  3.000       A
 Population analysis output                     : summary and pdos components

 ********************** Geometry Optimization Parameters ***********************

 optimization method                            : LBFGS
 max. no. of LBFGS updates                      : unbounded
 variable cell method                           : fixed basis quality
 max. number of steps                           :         30
 estimated bulk modulus                         :  500.0       GPa
 estimated <frequency>                          :  1668.       cm-1
 geom line minimiser                            : on
 with line minimiser tolerance                  :     0.4000
 total energy convergence tolerance             : 0.2000E-04   eV/atom
        max ionic |force| tolerance             : 0.5000E-01   eV/A
 max ionic |displacement| tolerance             : 0.1000E-02   A
   max |stress component| tolerance             : 0.1000       GPa
 convergence tolerance window                   :          2   steps
 backup results every                           :          5   steps
 write geom trajectory file                     : on

                                      Unit Cell
        Real Lattice(A)                      Reciprocal Lattice(1/A)
     2.0430000     2.0430000     0.0000000        1.537735024   1.537735024  -1.537735024
     2.0430000     0.0000000     2.0430000        1.537735024  -1.537735024   1.537735024
     0.0000000     2.0430000     2.0430000       -1.537735024   1.537735024   1.537735024

                       Lattice parameters(A)       Cell Angles
                    a =      2.889238          alpha =   60.000000
                    b =      2.889238          beta  =   60.000000
                    c =      2.889238          gamma =   60.000000

                       Current cell volume =            17.054347       A**3
                                   density =             6.324968   AMU/A**3
                                           =            10.502856     g/cm^3

                                     Cell Contents
                         Total number of ions in cell =    1
                      Total number of species in cell =    1
                        Max number of any one species =    1

            x  Element    Atom        Fractional coordinates of atoms  x
            x            Number           u          v          w      x
            x  Ag           1         0.000000   0.000000   0.000000   x

                         No user defined ionic velocities

                                   Details of Species

                               Mass of species in AMU
                                    Ag  107.8682000

                          Electric Quadrupole Moment (Barn)
                                    Ag    1.0000000 No Isotope Defined

                          Files used for pseudopotentials:
                                    Ag 3|1.5|1.5|0.8|15|17|19|40U:50:41:42(qc=7)

                              k-Points For BZ Sampling
                       MP grid size for SCF calculation is  5  5  5
                            with an offset of   0.000  0.000  0.000
                       Number of kpoints used =            10

                               Symmetry and Constraints

                      Maximum deviation from symmetry =  0.00000         ANG

                      Number of symmetry operations   =          48
                      Number of ionic constraints     =           3
                      Point group of crystal =    32: Oh, m-3m, 4/m -3 2/m
                      Space group of crystal =   225: Fm-3m, -F 4 2 3

             Set iprint > 1 for details on symmetry rotations/translations

                         Centre of mass is constrained
             Set iprint > 1 for details of linear ionic constraints

                         Number of cell constraints= 5
                         Cell constraints are:  1 1 1 0 0 0

                         External pressure/stress (GPa)
                          0.00000   0.00000   0.00000
                                    0.00000   0.00000
                                              0.00000

Final energy, E             =  -4288.734646267     eV
Final free energy (E-TS)    =  -4288.739943889     eV
(energies not corrected for finite basis set)

NB est. 0K energy (E-0.5TS)      =  -4288.737295078     eV

Calculating total energy with cut-off of  822.226 eV.
------------------------------------------------------------------------ <-- SCF
SCF loop      Energy           Fermi           Energy gain       Timer   <-- SCF
                               energy          per atom          (sec)   <-- SCF
------------------------------------------------------------------------ <-- SCF
Initial  -4.28873474E+003  0.00000000E+000                        38.92  <-- SCF
      1  -4.28874000E+003  1.26011977E+001   5.25645262E-003      39.49  <-- SCF
      2  -4.28874000E+003  1.26011977E+001   4.29164124E-008      41.43  <-- SCF
      3  -4.28874000E+003  1.26009184E+001  -1.05978968E-007      43.39  <-- SCF
      4  -4.28874000E+003  1.26011484E+001   1.01321589E-007      45.35  <-- SCF
------------------------------------------------------------------------ <-- SCF

[...]

Calculating total energy with cut-off of  827.226 eV.
------------------------------------------------------------------------ <-- SCF
SCF loop      Energy           Fermi           Energy gain       Timer   <-- SCF
                               energy          per atom          (sec)   <-- SCF
------------------------------------------------------------------------ <-- SCF
Initial  -4.28873479E+003  0.00000000E+000                        48.69  <-- SCF
      1  -4.28874005E+003  1.26007428E+001   5.26021569E-003      49.30  <-- SCF
      2  -4.28874005E+003  1.26007428E+001   4.06279392E-008      51.24  <-- SCF
      3  -4.28874005E+003  1.26011612E+001  -2.78469055E-007      53.19  <-- SCF
      4  -4.28874005E+003  1.26008192E+001   2.04768464E-007      55.16  <-- SCF
------------------------------------------------------------------------ <-- SCF

[...]

 For future reference: finite basis dEtot/dlog(Ecut) =      -0.010822eV
 Total energy corrected for finite basis set =   -4288.740056 eV

 *********** Symmetrised Stress Tensor ***********
 *          Cartesian components (GPa)           *
 *             x             y             z     *
 *  x      8.224580      0.000000     -0.000000  *
 *  y      0.000000      8.224580     -0.000000  *
 *  z     -0.000000     -0.000000      8.224580  *
 *  Pressure:   -8.2246                          *
 LBFGS: finished iteration     0 with enthalpy= -4.28874006E+003 eV

 +-----------+-----------------+-----------------+------------+-----+ <-- LBFGS
 | Parameter |      value      |    tolerance    |    units   | OK? | <-- LBFGS
 +-----------+-----------------+-----------------+------------+-----+ <-- LBFGS
 |  dE/ion   |   0.000000E+000 |   2.000000E-005 |         eV | No  | <-- LBFGS
 |   Smax    |   8.224580E+000 |   1.000000E-001 |        GPa | No  | <-- LBFGS
 +-----------+-----------------+-----------------+------------+-----+ <-- LBFGS

 Starting LBFGS iteration          1 ...

 +------------+-------------+-------------+-----------------+ <-- min LBFGS
 |    Step    |   lambda    |   F.delta'  |    enthalpy     | <-- min LBFGS
 +------------+-------------+-------------+-----------------+ <-- min LBFGS
 |  previous  |    0.000000 |    0.055725 |    -4288.740056 | <-- min LBFGS
 +------------+-------------+-------------+-----------------+ <-- min LBFGS

 LBFGS: starting iteration         1 with trial guess (lambda=  1.000000)

[...]

                Current cell volume =            16.775353 A**3
                            density =             6.430160 amu/A**3
                                    =            10.677532 g/cm^3

------------------------------------------------------------------------ <-- SCF
SCF loop      Energy           Fermi           Energy gain       Timer   <-- SCF
                               energy          per atom          (sec)   <-- SCF
------------------------------------------------------------------------ <-- SCF
Initial  -4.28822681E+003  0.00000000E+000                        66.92  <-- SCF
      1  -4.28862345E+003  1.30057719E+001   3.96636308E-001      67.66  <-- SCF
      2  -4.28862585E+003  1.30057127E+001   2.39760547E-003      69.60  <-- SCF
      3  -4.28850905E+003  1.27850979E+001  -1.16799588E-001      71.42  <-- SCF
      4  -4.28835562E+003  1.28938354E+001  -1.53424882E-001      73.23  <-- SCF
      5  -4.28840815E+003  1.28877398E+001   5.25283443E-002      75.11  <-- SCF
      6  -4.28840822E+003  1.28865905E+001   6.73283855E-005      76.85  <-- SCF
      7  -4.28840823E+003  1.28859616E+001   1.40651997E-005      78.45  <-- SCF
      8  -4.28840824E+003  1.28861812E+001   9.25581594E-006      80.01  <-- SCF
      9  -4.28840824E+003  1.28862166E+001   9.66131652E-008      81.58  <-- SCF
------------------------------------------------------------------------ <-- SCF

[...]

 *********** Symmetrised Stress Tensor ***********
 *          Cartesian components (GPa)           *
 *             x             y             z     *
 *  x      9.955826      0.000000     -0.000000  *
 *  y      0.000000      9.955826     -0.000000  *
 *  z     -0.000000     -0.000000      9.955826  *
 *  Pressure:   -9.9558                          *

 +------------+-------------+-------------+-----------------+ <-- min LBFGS
 |    Step    |   lambda    |   F.delta'  |    enthalpy     | <-- min LBFGS
 +------------+-------------+-------------+-----------------+ <-- min LBFGS
 |  previous  |    0.000000 |    0.055725 |    -4288.740056 | <-- min LBFGS
 | trial step |    1.000000 |    0.066717 |    -4288.408236 | <-- min LBFGS
 +------------+-------------+-------------+-----------------+ <-- min LBFGS

 LBFGS: improving iteration         1 with line minimization (lambda= -5.069488)

[...]

 +------------+-------------+-------------+-----------------+ <-- min LBFGS
 |    Step    |   lambda    |   F.delta'  |    enthalpy     | <-- min LBFGS
 +------------+-------------+-------------+-----------------+ <-- min LBFGS
 |  previous  |    0.000000 |    0.055725 |    -4288.740056 | <-- min LBFGS
 | trial step |    1.000000 |    0.066717 |    -4288.408236 | <-- min LBFGS
 |  line step |   -5.069488 |    0.112760 |    -4288.625789 | <-- min LBFGS
 +------------+-------------+-------------+-----------------+ <-- min LBFGS

 LBFGS: improving iteration         1 with quad minimization (lambda=  6.902884)

[...]

 +------------+-------------+-------------+-----------------+ <-- min LBFGS
 |    Step    |   lambda    |   F.delta'  |    enthalpy     | <-- min LBFGS
 +------------+-------------+-------------+-----------------+ <-- min LBFGS
 |  previous  |    0.000000 |    0.055725 |    -4288.740056 | <-- min LBFGS
 | trial step |    1.000000 |    0.066717 |    -4288.408236 | <-- min LBFGS
 |  line step |   -5.069488 |    0.112760 |    -4288.625789 | <-- min LBFGS
 |  quad step |    6.902884 |   -0.036989 |    -4288.437067 | <-- min LBFGS
 +------------+-------------+-------------+-----------------+ <-- min LBFGS

 LBFGS: finished iteration     1 with enthalpy= -4.28843707E+003 eV

[...]

 +-----------+-----------------+-----------------+------------+-----+ <-- LBFGS
 | Parameter |      value      |    tolerance    |    units   | OK? | <-- LBFGS
 +-----------+-----------------+-----------------+------------+-----+ <-- LBFGS
 |  dE/ion   |   2.100431E-003 |   2.000000E-005 |         eV | No  | <-- LBFGS
 |   Smax    |   1.968458E-001 |   1.000000E-001 |        GPa | No  | <-- LBFGS
 +-----------+-----------------+-----------------+------------+-----+ <-- LBFGS

 Starting LBFGS iteration          4 ...

 +------------+-------------+-------------+-----------------+ <-- min LBFGS
 |    Step    |   lambda    |   F.delta'  |    enthalpy     | <-- min LBFGS
 +------------+-------------+-------------+-----------------+ <-- min LBFGS
 |  previous  |    0.000000 |    0.001261 |    -4288.445362 | <-- min LBFGS
 +------------+-------------+-------------+-----------------+ <-- min LBFGS

 LBFGS: starting iteration         4 with trial guess (lambda=  1.000000)

[...]

------------------------------------------------------------------------ <-- SCF
SCF loop      Energy           Fermi           Energy gain       Timer   <-- SCF
                               energy          per atom          (sec)   <-- SCF
------------------------------------------------------------------------ <-- SCF
Initial  -4.28843939E+003  0.00000000E+000                       210.32  <-- SCF
      1  -4.28844643E+003  1.41312066E+001   7.03376556E-003     211.04  <-- SCF
      2  -4.28844644E+003  1.41312064E+001   1.02255083E-005     212.65  <-- SCF
      3  -4.28844579E+003  1.41157678E+001  -6.42770233E-004     214.45  <-- SCF
      4  -4.28844514E+003  1.41231582E+001  -6.49352852E-004     216.25  <-- SCF
      5  -4.28844537E+003  1.41230152E+001   2.27593826E-004     217.89  <-- SCF
      6  -4.28844537E+003  1.41230049E+001   3.88478953E-007     219.44  <-- SCF
      7  -4.28844537E+003  1.41230133E+001   4.82752601E-008     221.00  <-- SCF
------------------------------------------------------------------------ <-- SCF

Final energy, E             =  -4288.440075128     eV
Final free energy (E-TS)    =  -4288.445372750     eV
(energies not corrected for finite basis set)

NB est. 0K energy (E-0.5TS)      =  -4288.442723939     eV

[...]

 +------------+-------------+-------------+-----------------+ <-- min LBFGS
 |    Step    |   lambda    |   F.delta'  |    enthalpy     | <-- min LBFGS
 +------------+-------------+-------------+-----------------+ <-- min LBFGS
 |  previous  |    0.000000 |    0.001261 |    -4288.445362 | <-- min LBFGS
 | trial step |    1.000000 |   -0.000097 |    -4288.445382 | <-- min LBFGS
 +------------+-------------+-------------+-----------------+ <-- min LBFGS

 LBFGS: finished iteration     4 with enthalpy= -4.28844538E+003 eV

 +-----------+-----------------+-----------------+------------+-----+ <-- LBFGS
 | Parameter |      value      |    tolerance    |    units   | OK? | <-- LBFGS
 +-----------+-----------------+-----------------+------------+-----+ <-- LBFGS
 |  dE/ion   |   1.994641E-005 |   2.000000E-005 |         eV | Yes | <-- LBFGS
 |   Smax    |   1.518483E-002 |   1.000000E-001 |        GPa | Yes | <-- LBFGS
 +-----------+-----------------+-----------------+------------+-----+ <-- LBFGS

 LBFGS: Geometry optimization completed successfully.

 LBFGS: Final Configuration:

                                      Unit Cell
        Real Lattice(A)              Reciprocal Lattice(1/A)
     1.9860969     1.9860969     0.0000000        1.581792274   1.581792274  -1.581792274
     1.9860969    -0.0000000     1.9860969        1.581792274  -1.581792274   1.581792274
     0.0000000     1.9860969     1.9860969       -1.581792274   1.581792274   1.581792274

                       Lattice parameters(A)       Cell Angles
                    a =      2.808765          alpha =   60.000000
                    b =      2.808765          beta  =   60.000000
                    c =      2.808765          gamma =   60.000000

                Current cell volume =            15.668639 A**3
                            density =             6.884338 amu/A**3
                                    =            11.431712 g/cm^3

 LBFGS: Final Enthalpy     = -4.28844538E+003 eV
 LBFGS: Final bulk modulus unchanged from initial value

 ******************************** Symmetrised Forces ********************************
 *                           Cartesian components (eV/A)                            *
 *                         x                    y                    z              *
 * Ag              1      0.00000              0.00000              0.00000         *

 *********** Symmetrised Stress Tensor ***********
 *          Cartesian components (GPa)           *
 *             x             y             z     *
 *  x     -0.015185      0.000000     -0.000000  *
 *  y      0.000000     -0.015185     -0.000000  *
 *  z     -0.000000     -0.000000     -0.015185  *
 *  Pressure:    0.0152                          *

 Pseudo atomic calculation performed for Ag 4s2 4p6 4d10 5s1

 Converged in 40 iterations to a total energy of -4286.0810 eV
Charge spilling parameter for spin component 1 = 0.02%

            Orbital Populations
     Ion    Atom   Orbital             Charge
     Ag     1      S                    1.997
     Ag     1      Px                   1.999
     Ag     1      Py                   1.998
     Ag     1      Pz                   1.998
     Ag     1      Dzz                  1.964
     Ag     1      Dzy                  1.908
     Ag     1      Dzx                  1.959
     Ag     1      Dxx-yy               1.957
     Ag     1      Dxy                  1.950
     Ag     1      S                    0.453
     Ag     1      Px                   0.417
     Ag     1      Py                   0.193
     Ag     1      Pz                   0.207
                           Total:      19.000

     Atomic Populations (Mulliken)
Species          Ion     s      p      d      f     Total  Charge (e)
  Ag              1     2.45   6.81   9.74   0.00  19.00     0.00

                 Bond                   Population      Length (A)

Writing analysis data to Ag.castep_bin

Writing model to Ag.check

 A BibTeX formatted list of references used in this run has been written to
 Ag.bib

Initialisation time =     11.04 s
Calculation time    =    219.11 s
Finalisation time   =      0.67 s
Total time          =    230.82 s