 Run started: Fri, 05 Jul 2019 15:39:59 +0100

 Atomic calculation performed for Li: 1s2 2s1

 Converged in 51 iterations to an ae energy of -203.200 eV

   | Pseudopotential Report - Date of generation  5-07-2019   |
   | Element: Li Ionic charge:  3.00 Level of theory: RSCAN   |
   | Atomic Solver: Koelling-Harmon                           |
   |               Reference Electronic Structure             |
   |         Orbital         Occupation         Energy        |
   |            1s              2.000           -1.968        |
   |            2s              1.000           -0.105        |
   |                 Pseudopotential Definition               |
   |        Beta     l      e      Rc     scheme   norm       |
   |          1      0   -1.968   1.001     qc      0         |
   |          2      0   -0.105   1.001     qc      0         |
   |          3      0    0.250   1.001     qc      0         |
   |         loc     1    0.000   1.001     pn      0         |
   | Augmentation charge Rinner = 0.699                       |
   | No partial core correction                               |
   | "1|1.0|14|16|18|10U:20(qc=7)"                            |
   |      Author: Chris J. Pickard, Cambridge University      |

 Atomic calculation performed for F: 1s2 2s2 2p5

[...]

   | Pseudopotential Report - Date of generation  5-07-2019   |
   | Element: F Ionic charge:  7.00 Level of theory: RSCAN    |
   | Atomic Solver: Koelling-Harmon                           |
   |               Reference Electronic Structure             |
   |         Orbital         Occupation         Energy        |
   |            2s              2.000           -1.161        |
   |            2p              5.000           -0.427        |
   |                 Pseudopotential Definition               |
   |        Beta     l      e      Rc     scheme   norm       |
   |          1      0   -1.161   1.204     qc      0         |
   |          2      0    0.250   1.204     qc      0         |
   |          3      1   -0.427   1.204     qc      0         |
   |          4      1    0.250   1.204     qc      0         |
   |         loc     2    0.000   1.204     pn      0         |
   | Augmentation charge Rinner = 0.842                       |
   | Partial core correction Rc = 0.842                       |
   | "2|1.2|14|16|18|20:21(qc=7)"                             |
   |      Author: Chris J. Pickard, Cambridge University      |

 Pseudo atomic calculation performed for Li 1s2 2s1

 Converged in 18 iterations to a total energy of -201.0615 eV

 Pseudo atomic calculation performed for F 2s2 2p5

 Converged in 25 iterations to a total energy of -656.7231 eV
 Calculation not parallelised.

 ************************************ Title ************************************

 ***************************** General Parameters ******************************

 output verbosity                               : normal  (1)
 write checkpoint data to                       : LiF.check
 type of calculation                            : geometry optimization
 stress calculation                             : off
 density difference calculation                 : off
 electron localisation func (ELF) calculation   : off
 Hirshfeld analysis                             : off
 molecular orbital projected DOS                : off
 deltaSCF calculation                           : off
 unlimited duration calculation
 timing information                             : on
 write extra output files                       : on
 write final potential to formatted file        : off
 write final density to formatted file          : off
 write BibTeX reference list                    : on
 write OTFG pseudopotential files               : on
 write electrostatic potential file             : on
 write bands file                               : on
 checkpoint writing                             : both castep_bin and check files

 output         length unit                     : A
 output           mass unit                     : amu
 output           time unit                     : ps
 output         charge unit                     : e
 output           spin unit                     : hbar/2
 output         energy unit                     : eV
 output          force unit                     : eV/A
 output       velocity unit                     : A/ps
 output       pressure unit                     : GPa
 output     inv_length unit                     : 1/A
 output      frequency unit                     : cm-1
 output force constant unit                     : eV/A**2
 output         volume unit                     : A**3
 output   IR intensity unit                     : (D/A)**2/amu
 output         dipole unit                     : D
 output         efield unit                     : eV/A/e
 output        entropy unit                     : J/mol/K

 wavefunctions paging                           : none
 random number generator seed                   : randomised (153959550)
 data distribution                              : optimal for this architecture
 optimization strategy                          : maximize speed(+++)

 *********************** Exchange-Correlation Parameters ***********************

 using functional                               : RSCAN
 relativistic treatment                         : Koelling-Harmon
 DFT+D: Semi-empirical dispersion correction    : off

 ************************* Pseudopotential Parameters **************************

 pseudopotential representation                 : reciprocal space
 <beta|phi> representation                      : reciprocal space
 spin-orbit coupling                            : off

 **************************** Basis Set Parameters *****************************

 basis set accuracy                             : PRECISE
 plane wave basis set cut-off                   :   587.7659   eV
 size of standard grid                          :     1.7500
 size of   fine   grid                          :     4.0000
 size of   fine   gmax                          :    49.6822   1/A
 finite basis set correction                    : automatic
 number of sample energies                      :          3
           sample  spacing                      :     5.0000   eV

 **************************** Electronic Parameters ****************************

 number of  electrons                           :  10.00
 net charge of system                           :  0.000
 treating system as non-spin-polarized
 number of bands                                :          9

 ********************* Electronic Minimization Parameters **********************

 Method: Treating system as metallic with density mixing treatment of electrons,
         and number of  SD  steps               :          1
         and number of  CG  steps               :          4

 total energy / atom convergence tol.           : 0.1000E-04   eV
 eigen-energy convergence tolerance             : 0.1000E-05   eV
 max force / atom convergence tol.              : ignored
 convergence tolerance window                   :          3   cycles
 max. number of SCF cycles                      :         30
 number of fixed-spin iterations                :         10
 smearing scheme                                : Gaussian
 smearing width                                 : 0.2000       eV
 Fermi energy convergence tolerance             : 0.2721E-13   eV
 periodic dipole correction                     : NONE

 ************************** Density Mixing Parameters **************************

 density-mixing scheme                          : Broyden
 max. length of mixing history                  :         20
 charge density mixing amplitude                : 0.8000

 *********************** Population Analysis Parameters ************************

 Population analysis with cutoff                :  3.000       A
 Population analysis output                     : summary and pdos components

 ********************** Geometry Optimization Parameters ***********************

 optimization method                            : LBFGS
 max. no. of LBFGS updates                      : unbounded
 variable cell method                           : fixed basis quality
 max. number of steps                           :         30
 estimated bulk modulus                         :  500.0       GPa
 estimated <frequency>                          :  1668.       cm-1
 geom line minimiser                            : on
 with line minimiser tolerance                  :     0.4000
 total energy convergence tolerance             : 0.2000E-04   eV/atom
        max ionic |force| tolerance             : 0.5000E-01   eV/A
 max ionic |displacement| tolerance             : 0.1000E-02   A
   max |stress component| tolerance             : 0.1000       GPa
 convergence tolerance window                   :          2   steps
 backup results every                           :          5   steps
 write geom trajectory file                     : on

                                      Unit Cell
        Real Lattice(A)                      Reciprocal Lattice(1/A)
     2.0135000     2.0135000     0.0000000        1.560264541   1.560264541  -1.560264541
     2.0135000     0.0000000     2.0135000        1.560264541  -1.560264541   1.560264541
     0.0000000     2.0135000     2.0135000       -1.560264541   1.560264541   1.560264541

                       Lattice parameters(A)       Cell Angles
                    a =      2.847519          alpha =   60.000000
                    b =      2.847519          beta  =   60.000000
                    c =      2.847519          gamma =   60.000000

                       Current cell volume =            16.326192       A**3
                                   density =             1.588821   AMU/A**3
                                           =             2.638300     g/cm^3

                                     Cell Contents
                         Total number of ions in cell =    2
                      Total number of species in cell =    2
                        Max number of any one species =    1

            x  Element    Atom        Fractional coordinates of atoms  x
            x            Number           u          v          w      x
            x  Li           1         0.500000   0.500000   0.500000   x
            x  F            1         0.000000   0.000000   0.000000   x

                         No user defined ionic velocities

                                   Details of Species

                               Mass of species in AMU
                                    Li    6.9410000
                                    F   18.9984000

                          Electric Quadrupole Moment (Barn)
                                    Li   -0.0401000 Isotope  7
                                    F    1.0000000 No Isotope Defined

                          Files used for pseudopotentials:
                                    Li 1|1.0|14|16|18|10U:20(qc=7)
                                    F 2|1.2|14|16|18|20:21(qc=7)

                              k-Points For BZ Sampling
                       MP grid size for SCF calculation is  5  5  5
[...]

 output         length unit                     : A
 output           mass unit                     : amu
 output           time unit                     : ps
 output         charge unit                     : e
 output           spin unit                     : hbar/2
 output         energy unit                     : eV
 output          force unit                     : eV/A
 output       velocity unit                     : A/ps
 output       pressure unit                     : GPa
 output     inv_length unit                     : 1/A
 output      frequency unit                     : cm-1
 output force constant unit                     : eV/A**2
 output         volume unit                     : A**3
 output   IR intensity unit                     : (D/A)**2/amu
 output         dipole unit                     : D
 output         efield unit                     : eV/A/e
 output        entropy unit                     : J/mol/K

 wavefunctions paging                           : none
 random number generator seed                   : randomised (153302183)
 data distribution                              : optimal for this architecture
 optimization strategy                          : maximize speed(+++)

 *********************** Exchange-Correlation Parameters ***********************

 using functional                               : Perdew Burke Ernzerhof
 relativistic treatment                         : Koelling-Harmon
 DFT+D: Semi-empirical dispersion correction    : off

 ************************* Pseudopotential Parameters **************************

 pseudopotential representation                 : reciprocal space
 <beta|phi> representation                      : reciprocal space
 spin-orbit coupling                            : off

 **************************** Basis Set Parameters *****************************

 basis set accuracy                             : PRECISE
 plane wave basis set cut-off                   :   587.7659   eV
 size of standard grid                          :     1.7500
 size of   fine   grid                          :     4.0000
 size of   fine   gmax                          :    49.6822   1/A
 finite basis set correction                    : automatic
 number of sample energies                      :          3
           sample  spacing                      :     5.0000   eV

 **************************** Electronic Parameters ****************************

 number of  electrons                           :  10.00
 net charge of system                           :  0.000
 treating system as non-spin-polarized
 number of bands                                :          9

 ********************* Electronic Minimization Parameters **********************

 Method: Treating system as metallic with density mixing treatment of electrons,
         and number of  SD  steps               :          1
         and number of  CG  steps               :          4

 total energy / atom convergence tol.           : 0.1000E-04   eV
 eigen-energy convergence tolerance             : 0.1000E-05   eV
 max force / atom convergence tol.              : ignored
 convergence tolerance window                   :          3   cycles
 max. number of SCF cycles                      :         30
 number of fixed-spin iterations                :         10
 smearing scheme                                : Gaussian
 smearing width                                 : 0.2000       eV
 Fermi energy convergence tolerance             : 0.2721E-13   eV
 periodic dipole correction                     : NONE

 ************************** Density Mixing Parameters **************************

 density-mixing scheme                          : Broyden
 max. length of mixing history                  :         20
 charge density mixing amplitude                : 0.8000

 *********************** Population Analysis Parameters ************************

 Population analysis with cutoff                :  3.000       A
 Population analysis output                     : summary and pdos components

 ********************** Geometry Optimization Parameters ***********************

 optimization method                            : LBFGS
 max. no. of LBFGS updates                      : unbounded
 variable cell method                           : fixed basis quality
 max. number of steps                           :         30
 estimated bulk modulus                         :  500.0       GPa
 estimated <frequency>                          :  1668.       cm-1
 geom line minimiser                            : on
 with line minimiser tolerance                  :     0.4000
 total energy convergence tolerance             : 0.2000E-04   eV/atom
        max ionic |force| tolerance             : 0.5000E-01   eV/A
 max ionic |displacement| tolerance             : 0.1000E-02   A
   max |stress component| tolerance             : 0.1000       GPa
 convergence tolerance window                   :          2   steps
 backup results every                           :          5   steps
 write geom trajectory file                     : on

[...]

                       Current cell volume =            16.326192       A**3
                                   density =             1.588821   AMU/A**3
                                           =             2.638300     g/cm^3

                                     Cell Contents
                         Total number of ions in cell =    2
                      Total number of species in cell =    2
                        Max number of any one species =    1

            x  Element    Atom        Fractional coordinates of atoms  x
            x            Number           u          v          w      x
            x  Li           1         0.500000   0.500000   0.500000   x
            x  F            1         0.000000   0.000000   0.000000   x

                         No user defined ionic velocities

                                   Details of Species

                               Mass of species in AMU
                                    Li    6.9410000
                                    F   18.9984000

                          Electric Quadrupole Moment (Barn)
                                    Li   -0.0401000 Isotope  7
                                    F    1.0000000 No Isotope Defined

                          Files used for pseudopotentials:
                                    Li 1|1.0|14|16|18|10U:20(qc=7)
                                    F 2|1.2|14|16|18|20:21(qc=7)

                              k-Points For BZ Sampling
                       MP grid size for SCF calculation is  5  5  5
                            with an offset of   0.000  0.000  0.000
                       Number of kpoints used =            10

                               Symmetry and Constraints

                      Maximum deviation from symmetry =  0.00000         ANG

                      Number of symmetry operations   =          48
                      Number of ionic constraints     =           3
                      Point group of crystal =    32: Oh, m-3m, 4/m -3 2/m
                      Space group of crystal =   225: Fm-3m, -F 4 2 3

             Set iprint > 1 for details on symmetry rotations/translations

                         Centre of mass is constrained
             Set iprint > 1 for details of linear ionic constraints

                         Number of cell constraints= 5
                         Cell constraints are:  1 1 1 0 0 0

                         External pressure/stress (GPa)
                          0.00000   0.00000   0.00000
                                    0.00000   0.00000
                                              0.00000

[...]

Calculating total energy with cut-off of  587.766 eV.
------------------------------------------------------------------------ <-- SCF
SCF loop      Energy           Fermi           Energy gain       Timer   <-- SCF
                               energy          per atom          (sec)   <-- SCF
------------------------------------------------------------------------ <-- SCF
Initial  -8.67770145E+002  0.00000000E+000                        17.61  <-- SCF
      1  -8.67777996E+002  4.96505883E-001   3.92521728E-003      17.86  <-- SCF
      2  -8.67777997E+002  4.96505883E-001   4.36347505E-007      18.62  <-- SCF
      3  -8.67778001E+002  4.96296828E-001   2.28429973E-006      19.38  <-- SCF
      4  -8.67778002E+002  4.95763867E-001   2.24097613E-007      20.16  <-- SCF
------------------------------------------------------------------------ <-- SCF

[...]

 For future reference: finite basis dEtot/dlog(Ecut) =      -0.710178eV
 Total energy corrected for finite basis set =    -867.778080 eV

 *********** Symmetrised Stress Tensor ***********
 *          Cartesian components (GPa)           *
 *             x             y             z     *
 *  x     -2.343780     -0.000000     -0.000000  *
 *  y     -0.000000     -2.343780      0.000000  *
 *  z     -0.000000      0.000000     -2.343780  *
 *  Pressure:    2.3438                          *
 LBFGS: finished iteration     0 with enthalpy= -8.67778080E+002 eV

[...]

 +-----------+-----------------+-----------------+------------+-----+ <-- LBFGS
 | Parameter |      value      |    tolerance    |    units   | OK? | <-- LBFGS
 +-----------+-----------------+-----------------+------------+-----+ <-- LBFGS
 |  dE/ion   |   1.257635E-003 |   2.000000E-005 |         eV | No  | <-- LBFGS
 |   Smax    |   4.738650E-001 |   1.000000E-001 |        GPa | No  | <-- LBFGS
 +-----------+-----------------+-----------------+------------+-----+ <-- LBFGS

[...]

 +-----------+-----------------+-----------------+------------+-----+ <-- LBFGS
 | Parameter |      value      |    tolerance    |    units   | OK? | <-- LBFGS
 +-----------+-----------------+-----------------+------------+-----+ <-- LBFGS
 |  dE/ion   |   5.531796E-005 |   2.000000E-005 |         eV | No  | <-- LBFGS
 |   Smax    |   2.170429E-002 |   1.000000E-001 |        GPa | Yes | <-- LBFGS
 +-----------+-----------------+-----------------+------------+-----+ <-- LBFGS

 Starting LBFGS iteration          3 ...

 +------------+-------------+-------------+-----------------+ <-- min LBFGS
 |    Step    |   lambda    |   F.delta'  |    enthalpy     | <-- min LBFGS
 +------------+-------------+-------------+-----------------+ <-- min LBFGS
 |  previous  |    0.000000 |    0.000144 |     -867.780485 | <-- min LBFGS
 +------------+-------------+-------------+-----------------+ <-- min LBFGS

 LBFGS: starting iteration         3 with trial guess (lambda=  1.000000)

[...]

 +------------+-------------+-------------+-----------------+ <-- min LBFGS
 |    Step    |   lambda    |   F.delta'  |    enthalpy     | <-- min LBFGS
 +------------+-------------+-------------+-----------------+ <-- min LBFGS
 |  previous  |    0.000000 |    0.000144 |     -867.780485 | <-- min LBFGS
 | trial step |    1.000000 |    0.000667 |     -867.780217 | <-- min LBFGS
 +------------+-------------+-------------+-----------------+ <-- min LBFGS

 LBFGS: improving iteration         3 with line minimization (lambda= -0.275283)

[...]

------------------------------------------------------------------------ <-- SCF
SCF loop      Energy           Fermi           Energy gain       Timer   <-- SCF
                               energy          per atom          (sec)   <-- SCF
------------------------------------------------------------------------ <-- SCF
Initial  -8.67781969E+002  0.00000000E+000                        51.32  <-- SCF
      1  -8.67781824E+002  2.97532472E-001  -7.28392605E-005      51.59  <-- SCF
      2  -8.67781824E+002  2.97532471E-001   2.39437015E-008      52.33  <-- SCF
      3  -8.67781817E+002  2.73994271E-001  -3.36696472E-006      53.15  <-- SCF
      4  -8.67781796E+002  2.85036495E-001  -1.06454443E-005      53.91  <-- SCF
      5  -8.67781796E+002  2.85230051E-001   1.04657817E-007      54.66  <-- SCF
      6  -8.67781796E+002  2.85315112E-001   9.42477393E-009      55.41  <-- SCF
------------------------------------------------------------------------ <-- SCF

Final energy, E             =  -867.7817958455     eV
Final free energy (E-TS)    =  -867.7817958455     eV
(energies not corrected for finite basis set)

NB est. 0K energy (E-0.5TS)      =  -867.7817958455     eV

[...]

 +------------+-------------+-------------+-----------------+ <-- min LBFGS
 |    Step    |   lambda    |   F.delta'  |    enthalpy     | <-- min LBFGS
 +------------+-------------+-------------+-----------------+ <-- min LBFGS
 |  previous  |    0.000000 |    0.000144 |     -867.780485 | <-- min LBFGS
 | trial step |    1.000000 |    0.000667 |     -867.780217 | <-- min LBFGS
 |  line step |   -0.275283 |    0.000328 |     -867.780485 | <-- min LBFGS
 +------------+-------------+-------------+-----------------+ <-- min LBFGS

 LBFGS: finished iteration     3 with enthalpy= -8.67780485E+002 eV

 +-----------+-----------------+-----------------+------------+-----+ <-- LBFGS
 | Parameter |      value      |    tolerance    |    units   | OK? | <-- LBFGS
 +-----------+-----------------+-----------------+------------+-----+ <-- LBFGS
 |  dE/ion   |   2.095297E-007 |   2.000000E-005 |         eV | Yes | <-- LBFGS
 |   Smax    |   4.946920E-002 |   1.000000E-001 |        GPa | Yes | <-- LBFGS
 +-----------+-----------------+-----------------+------------+-----+ <-- LBFGS

 LBFGS: Geometry optimization completed successfully.

 LBFGS: Final Configuration:

                                      Unit Cell
        Real Lattice(A)              Reciprocal Lattice(1/A)
     2.0360035     2.0360035     0.0000000        1.543019300   1.543019300  -1.543019300
     2.0360035    -0.0000000     2.0360035        1.543019300  -1.543019300   1.543019300
    -0.0000000     2.0360035     2.0360035       -1.543019300   1.543019300   1.543019300

                       Lattice parameters(A)       Cell Angles
                    a =      2.879344          alpha =   60.000000
                    b =      2.879344          beta  =   60.000000
                    c =      2.879344          gamma =   60.000000

                Current cell volume =            16.879732 A**3
                            density =             1.536719 amu/A**3
                                    =             2.551781 g/cm^3

 LBFGS: Final Enthalpy     = -8.67780485E+002 eV
 LBFGS: Final bulk modulus unchanged from initial value

 ******************************** Symmetrised Forces ********************************
 *                           Cartesian components (eV/A)                            *
 *                         x                    y                    z              *
 * Li              1      0.00000              0.00000              0.00000         *
 * F               1      0.00000              0.00000              0.00000         *

 *********** Symmetrised Stress Tensor ***********
 *          Cartesian components (GPa)           *
 *             x             y             z     *
 *  x     -0.049469     -0.000000      0.000000  *
 *  y     -0.000000     -0.049469      0.000000  *
 *  z      0.000000      0.000000     -0.049469  *
 *  Pressure:    0.0495                          *

 Pseudo atomic calculation performed for Li 1s2 2s1

 Converged in 16 iterations to a total energy of -200.4810 eV

 Pseudo atomic calculation performed for F 2s2 2p5

 Converged in 17 iterations to a total energy of -657.5132 eV
Charge spilling parameter for spin component 1 = 0.08%

            Orbital Populations
     Ion    Atom   Orbital             Charge
     Li     1      S                    2.005
     Li     1      S                    0.073
     Li     1      Px                   0.232
     Li     1      Py                   0.099
     Li     1      Pz                   0.049
      F     1      S                    1.935
      F     1      Px                   1.827
      F     1      Py                   1.876
      F     1      Pz                   1.904
                           Total:      10.000

     Atomic Populations (Mulliken)
Species          Ion     s      p      d      f     Total  Charge (e)
  Li              1     2.08   0.38   0.00   0.00   2.46     0.54
  F               1     1.93   5.61   0.00   0.00   7.54    -0.54

                 Bond                   Population      Length (A)
              Li 1 -- F 1                    0.67        2.03600

Writing analysis data to LiF.castep_bin

Writing model to LiF.check

 A BibTeX formatted list of references used in this run has been written to
 LiF.bib

Initialisation time =      4.06 s
Calculation time    =     54.59 s
Finalisation time   =      0.54 s
Total time          =     59.18 s