 Run started: Mon, 15 Jul 2019 15:32:46 +0100
 Info: number of up-spin electrons is not equal to the
       number of down-spins but spin_polarized=false
     - consider setting spin_polarized=true.

 Atomic calculation performed for Li: 1s2 2s1

 Converged in 49 iterations to an ae energy of -202.784 eV

   | Pseudopotential Report - Date of generation 15-07-2019   |
   | Element: Li Ionic charge:  3.00 Level of theory: PBE     |
   | Atomic Solver: Koelling-Harmon                           |
   |               Reference Electronic Structure             |
   |         Orbital         Occupation         Energy        |
   |            1s              2.000           -1.906        |
   |            2s              1.000           -0.106        |
   |                 Pseudopotential Definition               |
   |        Beta     l      e      Rc     scheme   norm       |
   |          1      0   -1.906   1.001     qc      0         |
   |          2      0   -0.106   1.001     qc      0         |
   |          3      0    0.250   1.001     qc      0         |
   |         loc     1    0.000   1.001     pn      0         |
   | Augmentation charge Rinner = 0.699                       |
   | No partial core correction                               |
   | "1|1.0|14|16|18|10U:20(qc=7)"                            |
   |      Author: Chris J. Pickard, Cambridge University      |

 Pseudo atomic calculation performed for Li 1s2 2s1

 Converged in 17 iterations to a total energy of -200.5040 eV
 Calculation not parallelised.

 ************************************ Title ************************************

 ***************************** General Parameters ******************************

 output verbosity                               : normal  (1)
 write checkpoint data to                       : Li.check
 type of calculation                            : geometry optimization
 stress calculation                             : off
 density difference calculation                 : off
 electron localisation func (ELF) calculation   : off
 Hirshfeld analysis                             : off
 molecular orbital projected DOS                : off
 deltaSCF calculation                           : off
 unlimited duration calculation
 timing information                             : on
 write extra output files                       : on
 write final potential to formatted file        : off
 write final density to formatted file          : off
 write BibTeX reference list                    : on
 write OTFG pseudopotential files               : on
 write electrostatic potential file             : on
 write bands file                               : on
 checkpoint writing                             : both castep_bin and check files

 output         length unit                     : A
 output           mass unit                     : amu
 output           time unit                     : ps
 output         charge unit                     : e
 output           spin unit                     : hbar/2
 output         energy unit                     : eV
 output          force unit                     : eV/A
 output       velocity unit                     : A/ps
 output       pressure unit                     : GPa
 output     inv_length unit                     : 1/A
 output      frequency unit                     : cm-1
 output force constant unit                     : eV/A**2
 output         volume unit                     : A**3
 output   IR intensity unit                     : (D/A)**2/amu
 output         dipole unit                     : D
 output         efield unit                     : eV/A/e
 output        entropy unit                     : J/mol/K

 wavefunctions paging                           : none
 random number generator seed                   : randomised (153256884)
 data distribution                              : optimal for this architecture
 optimization strategy                          : maximize speed(+++)

 *********************** Exchange-Correlation Parameters ***********************

 using functional                               : Perdew Burke Ernzerhof
 relativistic treatment                         : Koelling-Harmon
 DFT+D: Semi-empirical dispersion correction    : off

 ************************* Pseudopotential Parameters **************************

 pseudopotential representation                 : reciprocal space
 <beta|phi> representation                      : reciprocal space
 spin-orbit coupling                            : off

 **************************** Basis Set Parameters *****************************

 basis set accuracy                             : EXTREME
 plane wave basis set cut-off                   :   783.6879   eV
 size of standard grid                          :     1.7500
 size of   fine   grid                          :     4.0000
 size of   fine   gmax                          :    57.3681   1/A
 finite basis set correction                    : automatic
 number of sample energies                      :          3
           sample  spacing                      :     5.0000   eV

 **************************** Electronic Parameters ****************************

 number of  electrons                           :  3.000
 net charge of system                           :  0.000
 treating system as non-spin-polarized
 number of bands                                :          6

 ********************* Electronic Minimization Parameters **********************

 Method: Treating system as metallic with density mixing treatment of electrons,
         and number of  SD  steps               :          1
         and number of  CG  steps               :          4

 total energy / atom convergence tol.           : 0.1000E-04   eV
 eigen-energy convergence tolerance             : 0.1000E-05   eV
 max force / atom convergence tol.              : ignored
 convergence tolerance window                   :          3   cycles
 max. number of SCF cycles                      :         30
 number of fixed-spin iterations                :         10
 smearing scheme                                : Gaussian
 smearing width                                 : 0.2000       eV
 Fermi energy convergence tolerance             : 0.2721E-13   eV
 periodic dipole correction                     : NONE

 ************************** Density Mixing Parameters **************************

 density-mixing scheme                          : Broyden
 max. length of mixing history                  :         20
 charge density mixing amplitude                : 0.8000

 *********************** Population Analysis Parameters ************************

 Population analysis with cutoff                :  3.000       A
 Population analysis output                     : summary and pdos components

 ********************** Geometry Optimization Parameters ***********************

 optimization method                            : LBFGS
 max. no. of LBFGS updates                      : unbounded
 variable cell method                           : fixed basis quality
 max. number of steps                           :         30
 estimated bulk modulus                         :  500.0       GPa
 estimated <frequency>                          :  1668.       cm-1
 geom line minimiser                            : on
 with line minimiser tolerance                  :     0.4000
 total energy convergence tolerance             : 0.2000E-04   eV/atom
        max ionic |force| tolerance             : 0.5000E-01   eV/A
 max ionic |displacement| tolerance             : 0.1000E-02   A
   max |stress component| tolerance             : 0.1000       GPa
 convergence tolerance window                   :          2   steps
 backup results every                           :          5   steps
 write geom trajectory file                     : on

                                      Unit Cell
        Real Lattice(A)                      Reciprocal Lattice(1/A)
    -1.6425000     1.6425000     1.6425000        0.000000000   1.912689591   1.912689591
     1.6425000    -1.6425000     1.6425000        1.912689591   0.000000000   1.912689591
     1.6425000     1.6425000    -1.6425000        1.912689591   1.912689591   0.000000000

                       Lattice parameters(A)       Cell Angles
                    a =      2.844893          alpha =  109.471221
                    b =      2.844893          beta  =  109.471221
                    c =      2.844893          gamma =  109.471221

                       Current cell volume =            17.724587       A**3
                                   density =             0.391603   AMU/A**3
                                           =             0.650272     g/cm^3

                                     Cell Contents
                         Total number of ions in cell =    1
                      Total number of species in cell =    1
                        Max number of any one species =    1

            x  Element    Atom        Fractional coordinates of atoms  x
            x            Number           u          v          w      x
            x  Li           1         0.000000   0.000000   0.000000   x

                         No user defined ionic velocities

                                   Details of Species

                               Mass of species in AMU
                                    Li    6.9410000

                          Electric Quadrupole Moment (Barn)
                                    Li   -0.0401000 Isotope  7

                          Files used for pseudopotentials:
                                    Li 1|1.0|14|16|18|10U:20(qc=7)

                              k-Points For BZ Sampling
                       MP grid size for SCF calculation is 31 31 31
                            with an offset of   0.000  0.000  0.000
                       Number of kpoints used =           816

                               Symmetry and Constraints

                      Maximum deviation from symmetry =  0.00000         ANG

                      Number of symmetry operations   =          48
                      Number of ionic constraints     =           3
                      Point group of crystal =    32: Oh, m-3m, 4/m -3 2/m
                      Space group of crystal =   229: Im-3m, -I 4 2 3

             Set iprint > 1 for details on symmetry rotations/translations

                         Centre of mass is constrained
             Set iprint > 1 for details of linear ionic constraints

                         Number of cell constraints= 5
                         Cell constraints are:  1 1 1 0 0 0

                         External pressure/stress (GPa)
                          0.00000   0.00000   0.00000
                                    0.00000   0.00000
                                              0.00000

Final energy, E             =  -202.4225955355     eV
Final free energy (E-TS)    =  -202.4318438644     eV
(energies not corrected for finite basis set)

NB est. 0K energy (E-0.5TS)      =  -202.4272196999     eV

Calculating total energy with cut-off of  778.688 eV.
------------------------------------------------------------------------ <-- SCF
SCF loop      Energy           Fermi           Energy gain       Timer   <-- SCF
                               energy          per atom          (sec)   <-- SCF
------------------------------------------------------------------------ <-- SCF
Initial  -2.02422612E+002  0.00000000E+000                       198.16  <-- SCF
      1  -2.02431852E+002  1.15215515E+000   9.24010444E-003     223.86  <-- SCF
      2  -2.02431852E+002  1.15215515E+000   3.75864702E-009     243.12  <-- SCF
      3  -2.02431852E+002  1.15216563E+000   5.65902135E-009     262.03  <-- SCF
      4  -2.02431852E+002  1.15216634E+000  -1.25014324E-009     280.34  <-- SCF
------------------------------------------------------------------------ <-- SCF

[...]

Calculating total energy with cut-off of  783.688 eV.
------------------------------------------------------------------------ <-- SCF
SCF loop      Energy           Fermi           Energy gain       Timer   <-- SCF
                               energy          per atom          (sec)   <-- SCF
------------------------------------------------------------------------ <-- SCF
Initial  -2.02422619E+002  0.00000000E+000                       283.46  <-- SCF
      1  -2.02431861E+002  1.15216020E+000   9.24160880E-003     308.30  <-- SCF
      2  -2.02431861E+002  1.15216020E+000   3.31036846E-010     326.42  <-- SCF
      3  -2.02431861E+002  1.15216932E+000   6.30995334E-009     344.44  <-- SCF
      4  -2.02431861E+002  1.15216777E+000  -1.83879283E-009     362.32  <-- SCF
------------------------------------------------------------------------ <-- SCF

[...]

 For future reference: finite basis dEtot/dlog(Ecut) =      -0.001323eV
 Total energy corrected for finite basis set =    -202.431861 eV

 *********** Symmetrised Stress Tensor ***********
 *          Cartesian components (GPa)           *
 *             x             y             z     *
 *  x     -2.330300      0.000000      0.000000  *
 *  y      0.000000     -2.330300      0.000000  *
 *  z      0.000000      0.000000     -2.330300  *
 *  Pressure:    2.3303                          *
 LBFGS: finished iteration     0 with enthalpy= -2.02431861E+002 eV

 +-----------+-----------------+-----------------+------------+-----+ <-- LBFGS
 | Parameter |      value      |    tolerance    |    units   | OK? | <-- LBFGS
 +-----------+-----------------+-----------------+------------+-----+ <-- LBFGS
 |  dE/ion   |   0.000000E+000 |   2.000000E-005 |         eV | No  | <-- LBFGS
 |   Smax    |   2.330300E+000 |   1.000000E-001 |        GPa | No  | <-- LBFGS
 +-----------+-----------------+-----------------+------------+-----+ <-- LBFGS

 Starting LBFGS iteration          1 ...

 +------------+-------------+-------------+-----------------+ <-- min LBFGS
 |    Step    |   lambda    |   F.delta'  |    enthalpy     | <-- min LBFGS
 +------------+-------------+-------------+-----------------+ <-- min LBFGS
 |  previous  |    0.000000 |    0.016409 |     -202.431861 | <-- min LBFGS
 +------------+-------------+-------------+-----------------+ <-- min LBFGS

 LBFGS: starting iteration         1 with trial guess (lambda=  1.000000)

[...]

                Current cell volume =            17.807323 A**3
                            density =             0.389783 amu/A**3
                                    =             0.647251 g/cm^3

------------------------------------------------------------------------ <-- SCF
SCF loop      Energy           Fermi           Energy gain       Timer   <-- SCF
                               energy          per atom          (sec)   <-- SCF
------------------------------------------------------------------------ <-- SCF
Initial  -2.02422942E+002  0.00000000E+000                       368.75  <-- SCF
      1  -2.02433197E+002  1.13585921E+000   1.02552017E-002     394.32  <-- SCF
      2  -2.02433200E+002  1.13585920E+000   3.36906705E-006     414.55  <-- SCF
      3  -2.02433034E+002  1.13600394E+000  -1.66285453E-004     439.98  <-- SCF
      4  -2.02433040E+002  1.13675235E+000   5.58460073E-006     457.81  <-- SCF
      5  -2.02433040E+002  1.13685128E+000   6.19854592E-008     475.67  <-- SCF
------------------------------------------------------------------------ <-- SCF

[...]

 *********** Symmetrised Stress Tensor ***********
 *          Cartesian components (GPa)           *
 *             x             y             z     *
 *  x     -2.238891     -0.000000      0.000000  *
 *  y     -0.000000     -2.238891     -0.000000  *
 *  z      0.000000     -0.000000     -2.238891  *
 *  Pressure:    2.2389                          *

 +------------+-------------+-------------+-----------------+ <-- min LBFGS
 |    Step    |   lambda    |   F.delta'  |    enthalpy     | <-- min LBFGS
 +------------+-------------+-------------+-----------------+ <-- min LBFGS
 |  previous  |    0.000000 |    0.016409 |     -202.431861 | <-- min LBFGS
 | trial step |    1.000000 |    0.015815 |     -202.433040 | <-- min LBFGS
 +------------+-------------+-------------+-----------------+ <-- min LBFGS

 LBFGS: improving iteration         1 with line minimization (lambda= 27.594606)

[...]

 +------------+-------------+-------------+-----------------+ <-- min LBFGS
 |    Step    |   lambda    |   F.delta'  |    enthalpy     | <-- min LBFGS
 +------------+-------------+-------------+-----------------+ <-- min LBFGS
 |  previous  |    0.000000 |    0.016409 |     -202.431861 | <-- min LBFGS
 | trial step |    1.000000 |    0.015815 |     -202.433040 | <-- min LBFGS
 |  line step |   27.594606 |    0.000955 |     -202.448648 | <-- min LBFGS
 +------------+-------------+-------------+-----------------+ <-- min LBFGS

 LBFGS: finished iteration     1 with enthalpy= -2.02448648E+002 eV

 +-----------+-----------------+-----------------+------------+-----+ <-- LBFGS
 | Parameter |      value      |    tolerance    |    units   | OK? | <-- LBFGS
 +-----------+-----------------+-----------------+------------+-----+ <-- LBFGS
 |  dE/ion   |   1.678753E-002 |   2.000000E-005 |         eV | No  | <-- LBFGS
 |   Smax    |   1.247321E-001 |   1.000000E-001 |        GPa | No  | <-- LBFGS
 +-----------+-----------------+-----------------+------------+-----+ <-- LBFGS

[...]

 +-----------+-----------------+-----------------+------------+-----+ <-- LBFGS
 | Parameter |      value      |    tolerance    |    units   | OK? | <-- LBFGS
 +-----------+-----------------+-----------------+------------+-----+ <-- LBFGS
 |  dE/ion   |   6.548497E-005 |   2.000000E-005 |         eV | No  | <-- LBFGS
 |   Smax    |   1.425980E-002 |   1.000000E-001 |        GPa | Yes | <-- LBFGS
 +-----------+-----------------+-----------------+------------+-----+ <-- LBFGS

 Starting LBFGS iteration          3 ...

 +------------+-------------+-------------+-----------------+ <-- min LBFGS
 |    Step    |   lambda    |   F.delta'  |    enthalpy     | <-- min LBFGS
 +------------+-------------+-------------+-----------------+ <-- min LBFGS
 |  previous  |    0.000000 |    0.000110 |     -202.448714 | <-- min LBFGS
 +------------+-------------+-------------+-----------------+ <-- min LBFGS

 LBFGS: starting iteration         3 with trial guess (lambda=  1.000000)

[...]

------------------------------------------------------------------------ <-- SCF
SCF loop      Energy           Fermi           Energy gain       Timer   <-- SCF
                               energy          per atom          (sec)   <-- SCF
------------------------------------------------------------------------ <-- SCF
Initial  -2.02439150E+002  0.00000000E+000                       805.11  <-- SCF
      1  -2.02448722E+002  7.34719850E-001   9.57259477E-003     827.68  <-- SCF
      2  -2.02448722E+002  7.34719838E-001   1.61169048E-007     846.22  <-- SCF
      3  -2.02448715E+002  7.34708030E-001  -7.65818639E-006     864.76  <-- SCF
      4  -2.02448715E+002  7.34899711E-001   4.42309576E-007     883.32  <-- SCF
------------------------------------------------------------------------ <-- SCF

Final energy, E             =  -202.4391738799     eV
Final free energy (E-TS)    =  -202.4487150412     eV
(energies not corrected for finite basis set)

NB est. 0K energy (E-0.5TS)      =  -202.4439444605     eV

[...]

 +------------+-------------+-------------+-----------------+ <-- min LBFGS
 |    Step    |   lambda    |   F.delta'  |    enthalpy     | <-- min LBFGS
 +------------+-------------+-------------+-----------------+ <-- min LBFGS
 |  previous  |    0.000000 |    0.000110 |     -202.448714 | <-- min LBFGS
 | trial step |    1.000000 | -5.265E-006 |     -202.448715 | <-- min LBFGS
 +------------+-------------+-------------+-----------------+ <-- min LBFGS

 LBFGS: finished iteration     3 with enthalpy= -2.02448715E+002 eV

 +-----------+-----------------+-----------------+------------+-----+ <-- LBFGS
 | Parameter |      value      |    tolerance    |    units   | OK? | <-- LBFGS
 +-----------+-----------------+-----------------+------------+-----+ <-- LBFGS
 |  dE/ion   |   1.071431E-006 |   2.000000E-005 |         eV | Yes | <-- LBFGS
 |   Smax    |   6.835726E-004 |   1.000000E-001 |        GPa | Yes | <-- LBFGS
 +-----------+-----------------+-----------------+------------+-----+ <-- LBFGS

 LBFGS: Geometry optimization completed successfully.

 LBFGS: Final Configuration:

                                      Unit Cell
        Real Lattice(A)              Reciprocal Lattice(1/A)
    -1.7178299     1.7178299     1.7178299        0.000000000   1.828814694   1.828814694
     1.7178299    -1.7178299     1.7178299        1.828814694   0.000000000   1.828814694
     1.7178299     1.7178299    -1.7178299        1.828814694   1.828814694   0.000000000

                       Lattice parameters(A)       Cell Angles
                    a =      2.975369          alpha =  109.471221
                    b =      2.975369          beta  =  109.471221
                    c =      2.975369          gamma =  109.471221

                Current cell volume =            20.276851 A**3
                            density =             0.342312 amu/A**3
                                    =             0.568422 g/cm^3

 LBFGS: Final Enthalpy     = -2.02448715E+002 eV
 LBFGS: Final bulk modulus =      14.44153 GPa

 ******************************** Symmetrised Forces ********************************
 *                           Cartesian components (eV/A)                            *
 *                         x                    y                    z              *
 * Li              1      0.00000              0.00000              0.00000         *

 *********** Symmetrised Stress Tensor ***********
 *          Cartesian components (GPa)           *
 *             x             y             z     *
 *  x      0.000684      0.000000      0.000000  *
 *  y      0.000000      0.000684     -0.000000  *
 *  z      0.000000     -0.000000      0.000684  *
 *  Pressure:   -0.0007                          *

 Pseudo atomic calculation performed for Li 1s2 2s1

 Converged in 17 iterations to a total energy of -200.5040 eV
Charge spilling parameter for spin component 1 = 0.05%

            Orbital Populations
     Ion    Atom   Orbital             Charge
     Li     1      S                    2.003
     Li     1      S                   -0.048
     Li     1      Px                   0.474
     Li     1      Py                   0.332
     Li     1      Pz                   0.239
                           Total:       3.000

     Atomic Populations (Mulliken)
Species          Ion     s      p      d      f     Total  Charge (e)
  Li              1     1.95   1.05   0.00   0.00   3.00     0.00

                 Bond                   Population      Length (A)

Writing analysis data to Li.castep_bin

Writing model to Li.check

 A BibTeX formatted list of references used in this run has been written to
 Li.bib

Initialisation time =     22.21 s
Calculation time    =    867.75 s
Finalisation time   =      1.93 s
Total time          =    891.88 s