 Run started: Fri, 05 Jul 2019 15:53:42 +0100
 Info: number of up-spin electrons is not equal to the
       number of down-spins but spin_polarized=false
     - consider setting spin_polarized=true.

 Atomic calculation performed for Li: 1s2 2s1

 Converged in 51 iterations to an ae energy of -203.200 eV

   | Pseudopotential Report - Date of generation  5-07-2019   |
   | Element: Li Ionic charge:  3.00 Level of theory: RSCAN   |
   | Atomic Solver: Koelling-Harmon                           |
   |               Reference Electronic Structure             |
   |         Orbital         Occupation         Energy        |
   |            1s              2.000           -1.968        |
   |            2s              1.000           -0.105        |
   |                 Pseudopotential Definition               |
   |        Beta     l      e      Rc     scheme   norm       |
   |          1      0   -1.968   1.001     qc      0         |
   |          2      0   -0.105   1.001     qc      0         |
   |          3      0    0.250   1.001     qc      0         |
   |         loc     1    0.000   1.001     pn      0         |
   | Augmentation charge Rinner = 0.699                       |
   | No partial core correction                               |
   | "1|1.0|14|16|18|10U:20(qc=7)"                            |
   |      Author: Chris J. Pickard, Cambridge University      |

 Pseudo atomic calculation performed for Li 1s2 2s1

 Converged in 18 iterations to a total energy of -201.0615 eV
 Calculation not parallelised.

 ************************************ Title ************************************

 ***************************** General Parameters ******************************

 output verbosity                               : normal  (1)
 write checkpoint data to                       : Li.check
 type of calculation                            : geometry optimization
 stress calculation                             : off
 density difference calculation                 : off
 electron localisation func (ELF) calculation   : off
 Hirshfeld analysis                             : off
 molecular orbital projected DOS                : off
 deltaSCF calculation                           : off
 unlimited duration calculation
 timing information                             : on
 write extra output files                       : on
 write final potential to formatted file        : off
 write final density to formatted file          : off
 write BibTeX reference list                    : on
 write OTFG pseudopotential files               : on
 write electrostatic potential file             : on
 write bands file                               : on
 checkpoint writing                             : both castep_bin and check files

 output         length unit                     : A
 output           mass unit                     : amu
 output           time unit                     : ps
 output         charge unit                     : e
 output           spin unit                     : hbar/2
 output         energy unit                     : eV
 output          force unit                     : eV/A
 output       velocity unit                     : A/ps
 output       pressure unit                     : GPa
 output     inv_length unit                     : 1/A
 output      frequency unit                     : cm-1
 output force constant unit                     : eV/A**2
 output         volume unit                     : A**3
 output   IR intensity unit                     : (D/A)**2/amu
 output         dipole unit                     : D
 output         efield unit                     : eV/A/e
 output        entropy unit                     : J/mol/K

 wavefunctions paging                           : none
 random number generator seed                   : randomised (155342205)
 data distribution                              : optimal for this architecture
 optimization strategy                          : maximize speed(+++)

 *********************** Exchange-Correlation Parameters ***********************

 using functional                               : RSCAN
 relativistic treatment                         : Koelling-Harmon
 DFT+D: Semi-empirical dispersion correction    : off

 ************************* Pseudopotential Parameters **************************

 pseudopotential representation                 : reciprocal space
 <beta|phi> representation                      : reciprocal space
 spin-orbit coupling                            : off

 **************************** Basis Set Parameters *****************************

 basis set accuracy                             : PRECISE
 plane wave basis set cut-off                   :   587.7659   eV
 size of standard grid                          :     1.7500
 size of   fine   grid                          :     4.0000
 size of   fine   gmax                          :    49.6822   1/A
 finite basis set correction                    : automatic
 number of sample energies                      :          3
           sample  spacing                      :     5.0000   eV

 **************************** Electronic Parameters ****************************

 number of  electrons                           :  3.000
 net charge of system                           :  0.000
 treating system as non-spin-polarized
 number of bands                                :          6

 ********************* Electronic Minimization Parameters **********************

 Method: Treating system as metallic with density mixing treatment of electrons,
         and number of  SD  steps               :          1
         and number of  CG  steps               :          4

 total energy / atom convergence tol.           : 0.1000E-04   eV
 eigen-energy convergence tolerance             : 0.1000E-05   eV
 max force / atom convergence tol.              : ignored
 convergence tolerance window                   :          3   cycles
 max. number of SCF cycles                      :         30
 number of fixed-spin iterations                :         10
 smearing scheme                                : Gaussian
 smearing width                                 : 0.2000       eV
 Fermi energy convergence tolerance             : 0.2721E-13   eV
 periodic dipole correction                     : NONE

 ************************** Density Mixing Parameters **************************

 density-mixing scheme                          : Broyden
 max. length of mixing history                  :         20
 charge density mixing amplitude                : 0.8000

 *********************** Population Analysis Parameters ************************

 Population analysis with cutoff                :  3.000       A
 Population analysis output                     : summary and pdos components

 ********************** Geometry Optimization Parameters ***********************

 optimization method                            : LBFGS
 max. no. of LBFGS updates                      : unbounded
 variable cell method                           : fixed basis quality
 max. number of steps                           :         30
 estimated bulk modulus                         :  500.0       GPa
 estimated <frequency>                          :  1668.       cm-1
 geom line minimiser                            : on
 with line minimiser tolerance                  :     0.4000
 total energy convergence tolerance             : 0.2000E-04   eV/atom
        max ionic |force| tolerance             : 0.5000E-01   eV/A
 max ionic |displacement| tolerance             : 0.1000E-02   A
   max |stress component| tolerance             : 0.1000       GPa
 convergence tolerance window                   :          2   steps
 backup results every                           :          5   steps
 write geom trajectory file                     : on

                                      Unit Cell
        Real Lattice(A)                      Reciprocal Lattice(1/A)
     1.9500000     1.9500000     0.0000000        1.611073156   1.611073156  -1.611073156
     1.9500000     0.0000000     1.9500000        1.611073156  -1.611073156   1.611073156
     0.0000000     1.9500000     1.9500000       -1.611073156   1.611073156   1.611073156

                       Lattice parameters(A)       Cell Angles
                    a =      2.757716          alpha =   60.000000
                    b =      2.757716          beta  =   60.000000
                    c =      2.757716          gamma =   60.000000

                       Current cell volume =            14.829750       A**3
                                   density =             0.468046   AMU/A**3
                                           =             0.777208     g/cm^3

                                     Cell Contents
                         Total number of ions in cell =    1
                      Total number of species in cell =    1
                        Max number of any one species =    1

            x  Element    Atom        Fractional coordinates of atoms  x
            x            Number           u          v          w      x
            x  Li           1         0.000000   0.000000   0.000000   x

                         No user defined ionic velocities

                                   Details of Species

                               Mass of species in AMU
                                    Li    6.9410000

                          Electric Quadrupole Moment (Barn)
                                    Li   -0.0401000 Isotope  7

                          Files used for pseudopotentials:
                                    Li 1|1.0|14|16|18|10U:20(qc=7)

                              k-Points For BZ Sampling
                       MP grid size for SCF calculation is  5  5  5
                            with an offset of   0.000  0.000  0.000
                       Number of kpoints used =            10

                               Symmetry and Constraints

                      Maximum deviation from symmetry =  0.00000         ANG

                      Number of symmetry operations   =          48
                      Number of ionic constraints     =           3
                      Point group of crystal =    32: Oh, m-3m, 4/m -3 2/m
                      Space group of crystal =   225: Fm-3m, -F 4 2 3

             Set iprint > 1 for details on symmetry rotations/translations

                         Centre of mass is constrained
             Set iprint > 1 for details of linear ionic constraints

                         Number of cell constraints= 5
                         Cell constraints are:  1 1 1 0 0 0

                         External pressure/stress (GPa)
                          0.00000   0.00000   0.00000
                                    0.00000   0.00000
                                              0.00000

Final energy, E             =  -202.8222556756     eV
Final free energy (E-TS)    =  -202.8282767884     eV
(energies not corrected for finite basis set)

NB est. 0K energy (E-0.5TS)      =  -202.8252662320     eV

Calculating total energy with cut-off of  582.766 eV.
------------------------------------------------------------------------ <-- SCF
SCF loop      Energy           Fermi           Energy gain       Timer   <-- SCF
                               energy          per atom          (sec)   <-- SCF
------------------------------------------------------------------------ <-- SCF
Initial  -2.02822440E+002  0.00000000E+000                         7.80  <-- SCF
      1  -2.02828921E+002  2.14070350E+000   6.48090563E-003       7.95  <-- SCF
      2  -2.02828921E+002  2.14070350E+000   4.58343317E-008       8.62  <-- SCF
      3  -2.02828920E+002  2.14076218E+000  -1.35511210E-006       9.29  <-- SCF
      4  -2.02828921E+002  2.14058744E+000   9.87702436E-007       9.95  <-- SCF
------------------------------------------------------------------------ <-- SCF

[...]

Calculating total energy with cut-off of  587.766 eV.
------------------------------------------------------------------------ <-- SCF
SCF loop      Energy           Fermi           Energy gain       Timer   <-- SCF
                               energy          per atom          (sec)   <-- SCF
------------------------------------------------------------------------ <-- SCF
Initial  -2.02823084E+002  0.00000000E+000                        10.98  <-- SCF
      1  -2.02831641E+002  2.14047602E+000   8.55707616E-003      11.16  <-- SCF
      2  -2.02831642E+002  2.14047601E+000   3.88448791E-007      11.83  <-- SCF
      3  -2.02831639E+002  2.14077721E+000  -2.68998098E-006      12.49  <-- SCF
      4  -2.02831642E+002  2.14001244E+000   2.75854014E-006      13.16  <-- SCF
------------------------------------------------------------------------ <-- SCF

[...]

 For future reference: finite basis dEtot/dlog(Ecut) =      -0.211727eV
 Total energy corrected for finite basis set =    -202.831523 eV

 *********** Symmetrised Stress Tensor ***********
 *          Cartesian components (GPa)           *
 *             x             y             z     *
 *  x     -5.960663      0.000000      0.000000  *
 *  y      0.000000     -5.960663      0.000000  *
 *  z      0.000000      0.000000     -5.960663  *
 *  Pressure:    5.9607                          *
 LBFGS: finished iteration     0 with enthalpy= -2.02831523E+002 eV

 +-----------+-----------------+-----------------+------------+-----+ <-- LBFGS
 | Parameter |      value      |    tolerance    |    units   | OK? | <-- LBFGS
 +-----------+-----------------+-----------------+------------+-----+ <-- LBFGS
 |  dE/ion   |   0.000000E+000 |   2.000000E-005 |         eV | No  | <-- LBFGS
 |   Smax    |   5.960663E+000 |   1.000000E-001 |        GPa | No  | <-- LBFGS
 +-----------+-----------------+-----------------+------------+-----+ <-- LBFGS

 Starting LBFGS iteration          1 ...

 +------------+-------------+-------------+-----------------+ <-- min LBFGS
 |    Step    |   lambda    |   F.delta'  |    enthalpy     | <-- min LBFGS
 +------------+-------------+-------------+-----------------+ <-- min LBFGS
 |  previous  |    0.000000 |    0.035118 |     -202.831523 | <-- min LBFGS
 +------------+-------------+-------------+-----------------+ <-- min LBFGS

 LBFGS: starting iteration         1 with trial guess (lambda=  1.000000)

[...]

                Current cell volume =            15.007244 A**3
                            density =             0.462510 amu/A**3
                                    =             0.768016 g/cm^3

------------------------------------------------------------------------ <-- SCF
SCF loop      Energy           Fermi           Energy gain       Timer   <-- SCF
                               energy          per atom          (sec)   <-- SCF
------------------------------------------------------------------------ <-- SCF
Initial  -2.02824464E+002  0.00000000E+000                        15.35  <-- SCF
      1  -2.02838896E+002  2.08817967E+000   1.44318963E-002      15.55  <-- SCF
      2  -2.02838915E+002  2.08817964E+000   1.85845497E-005      16.25  <-- SCF
      3  -2.02838204E+002  2.09725642E+000  -7.10434549E-004      16.98  <-- SCF
      4  -2.02838071E+002  2.09147912E+000  -1.33383059E-004      17.72  <-- SCF
      5  -2.02838077E+002  2.09120651E+000   5.57574247E-006      18.41  <-- SCF
      6  -2.02838076E+002  2.09126483E+000  -6.71273070E-007      19.10  <-- SCF
------------------------------------------------------------------------ <-- SCF

[...]

 *********** Symmetrised Stress Tensor ***********
 *          Cartesian components (GPa)           *
 *             x             y             z     *
 *  x     -5.581329      0.000000     -0.000000  *
 *  y      0.000000     -5.581329     -0.000000  *
 *  z     -0.000000     -0.000000     -5.581329  *
 *  Pressure:    5.5813                          *

 +------------+-------------+-------------+-----------------+ <-- min LBFGS
 |    Step    |   lambda    |   F.delta'  |    enthalpy     | <-- min LBFGS
 +------------+-------------+-------------+-----------------+ <-- min LBFGS
 |  previous  |    0.000000 |    0.035118 |     -202.831523 | <-- min LBFGS
 | trial step |    1.000000 |    0.033145 |     -202.837786 | <-- min LBFGS
 +------------+-------------+-------------+-----------------+ <-- min LBFGS

 LBFGS: improving iteration         1 with line minimization (lambda= 17.798966)

[...]

 +------------+-------------+-------------+-----------------+ <-- min LBFGS
 |    Step    |   lambda    |   F.delta'  |    enthalpy     | <-- min LBFGS
 +------------+-------------+-------------+-----------------+ <-- min LBFGS
 |  previous  |    0.000000 |    0.035118 |     -202.831523 | <-- min LBFGS
 | trial step |    1.000000 |    0.033145 |     -202.837786 | <-- min LBFGS
 |  line step |   17.798966 |    0.004426 |     -202.927345 | <-- min LBFGS
 +------------+-------------+-------------+-----------------+ <-- min LBFGS

 LBFGS: finished iteration     1 with enthalpy= -2.02927345E+002 eV

[...]

 +-----------+-----------------+-----------------+------------+-----+ <-- LBFGS
 | Parameter |      value      |    tolerance    |    units   | OK? | <-- LBFGS
 +-----------+-----------------+-----------------+------------+-----+ <-- LBFGS
 |  dE/ion   |   9.419436E-004 |   2.000000E-005 |         eV | No  | <-- LBFGS
 |   Smax    |   1.589214E-001 |   1.000000E-001 |        GPa | No  | <-- LBFGS
 +-----------+-----------------+-----------------+------------+-----+ <-- LBFGS

[...]

 +-----------+-----------------+-----------------+------------+-----+ <-- LBFGS
 | Parameter |      value      |    tolerance    |    units   | OK? | <-- LBFGS
 +-----------+-----------------+-----------------+------------+-----+ <-- LBFGS
 |  dE/ion   |   1.208671E-004 |   2.000000E-005 |         eV | No  | <-- LBFGS
 |   Smax    |   4.464342E-002 |   1.000000E-001 |        GPa | Yes | <-- LBFGS
 +-----------+-----------------+-----------------+------------+-----+ <-- LBFGS

 Starting LBFGS iteration          4 ...

 +------------+-------------+-------------+-----------------+ <-- min LBFGS
 |    Step    |   lambda    |   F.delta'  |    enthalpy     | <-- min LBFGS
 +------------+-------------+-------------+-----------------+ <-- min LBFGS
 |  previous  |    0.000000 |    0.000309 |     -202.928166 | <-- min LBFGS
 +------------+-------------+-------------+-----------------+ <-- min LBFGS

 LBFGS: starting iteration         4 with trial guess (lambda=  1.000000)

[...]

------------------------------------------------------------------------ <-- SCF
SCF loop      Energy           Fermi           Energy gain       Timer   <-- SCF
                               energy          per atom          (sec)   <-- SCF
------------------------------------------------------------------------ <-- SCF
Initial  -2.02922866E+002  0.00000000E+000                        46.90  <-- SCF
      1  -2.02928360E+002  1.24951921E+000   5.49439369E-003      47.20  <-- SCF
      2  -2.02928360E+002  1.24951921E+000   3.40145278E-007      48.07  <-- SCF
      3  -2.02928388E+002  1.24764712E+000   2.78394980E-005      49.03  <-- SCF
      4  -2.02928333E+002  1.24898130E+000  -5.52287544E-005      49.96  <-- SCF
      5  -2.02928328E+002  1.24906159E+000  -4.55415363E-006      50.80  <-- SCF
      6  -2.02928329E+002  1.24904256E+000   9.88209154E-007      51.63  <-- SCF
------------------------------------------------------------------------ <-- SCF

Final energy, E             =  -202.9227536659     eV
Final free energy (E-TS)    =  -202.9283293648     eV
(energies not corrected for finite basis set)

NB est. 0K energy (E-0.5TS)      =  -202.9255415154     eV

[...]

 +------------+-------------+-------------+-----------------+ <-- min LBFGS
 |    Step    |   lambda    |   F.delta'  |    enthalpy     | <-- min LBFGS
 +------------+-------------+-------------+-----------------+ <-- min LBFGS
 |  previous  |    0.000000 |    0.000309 |     -202.928166 | <-- min LBFGS
 | trial step |    1.000000 |   -0.000079 |     -202.928176 | <-- min LBFGS
 +------------+-------------+-------------+-----------------+ <-- min LBFGS

 LBFGS: finished iteration     4 with enthalpy= -2.02928176E+002 eV

 +-----------+-----------------+-----------------+------------+-----+ <-- LBFGS
 | Parameter |      value      |    tolerance    |    units   | OK? | <-- LBFGS
 +-----------+-----------------+-----------------+------------+-----+ <-- LBFGS
 |  dE/ion   |   9.664708E-006 |   2.000000E-005 |         eV | Yes | <-- LBFGS
 |   Smax    |   1.138458E-002 |   1.000000E-001 |        GPa | Yes | <-- LBFGS
 +-----------+-----------------+-----------------+------------+-----+ <-- LBFGS

 LBFGS: Geometry optimization completed successfully.

 LBFGS: Final Configuration:

                                      Unit Cell
        Real Lattice(A)              Reciprocal Lattice(1/A)
     2.1129044     2.1129044     0.0000000        1.486859846   1.486859846  -1.486859846
     2.1129044    -0.0000000     2.1129044        1.486859846  -1.486859846   1.486859846
     0.0000000     2.1129044     2.1129044       -1.486859846   1.486859846   1.486859846

                       Lattice parameters(A)       Cell Angles
                    a =      2.988098          alpha =   60.000000
                    b =      2.988098          beta  =   60.000000
                    c =      2.988098          gamma =   60.000000

                Current cell volume =            18.865552 A**3
                            density =             0.367919 amu/A**3
                                    =             0.610944 g/cm^3

 LBFGS: Final Enthalpy     = -2.02928176E+002 eV
 LBFGS: Final bulk modulus unchanged from initial value

 ******************************** Symmetrised Forces ********************************
 *                           Cartesian components (eV/A)                            *
 *                         x                    y                    z              *
 * Li              1      0.00000              0.00000              0.00000         *

 *********** Symmetrised Stress Tensor ***********
 *          Cartesian components (GPa)           *
 *             x             y             z     *
 *  x     -0.011385      0.000000     -0.000000  *
 *  y      0.000000     -0.011385      0.000000  *
 *  z     -0.000000      0.000000     -0.011385  *
 *  Pressure:    0.0114                          *

 Pseudo atomic calculation performed for Li 1s2 2s1

 Converged in 18 iterations to a total energy of -201.0615 eV
Charge spilling parameter for spin component 1 = 0.07%

            Orbital Populations
     Ion    Atom   Orbital             Charge
     Li     1      S                    2.007
     Li     1      S                   -0.220
     Li     1      Px                   0.340
     Li     1      Py                   0.611
     Li     1      Pz                   0.262
                           Total:       3.000

     Atomic Populations (Mulliken)
Species          Ion     s      p      d      f     Total  Charge (e)
  Li              1     1.79   1.21   0.00   0.00   3.00     0.00

                 Bond                   Population      Length (A)

Writing analysis data to Li.castep_bin

Writing model to Li.check

 A BibTeX formatted list of references used in this run has been written to
 Li.bib

Initialisation time =      1.76 s
Calculation time    =     52.13 s
Finalisation time   =      0.51 s
Total time          =     54.40 s