 Run started: Mon, 08 Jul 2019 11:00:01 +0100
 Info: number of up-spin electrons is not equal to the
       number of down-spins but spin_polarized=false
     - consider setting spin_polarized=true.

 Atomic calculation performed for Na: 1s2 2s2 2p6 3s1

 Exceeded max iterations: converged to 0.000001167 eV
 The ae energy is -4422.136 eV

   | Pseudopotential Report - Date of generation  8-07-2019   |
   | Element: Na Ionic charge:  9.00 Level of theory: RSCAN   |
   | Atomic Solver: Koelling-Harmon                           |
   |               Reference Electronic Structure             |
   |         Orbital         Occupation         Energy        |
   |            2s              2.000           -2.187        |
   |            2p              6.000           -1.101        |
   |            3s              1.000           -0.100        |
   |                 Pseudopotential Definition               |
   |        Beta     l      e      Rc     scheme   norm       |
   |          1      0   -2.187   1.297     qc      0         |
   |          2      0   -0.100   1.297     qc      0         |
   |          3      0    0.250   1.297     qc      0         |
   |          4      1   -1.101   1.297     qc      0         |
   |          5      1    0.250   1.297     qc      0         |
   |         loc     2    0.000   1.297     pn      0         |
   | Augmentation charge Rinner = 0.907                       |
   | Partial core correction Rc = 0.907                       |
   | "2|1.3|14|16|18|20U:30:21(qc=7)"                         |
   |      Author: Chris J. Pickard, Cambridge University      |

 Pseudo atomic calculation performed for Na 2s2 2p6 3s1

 Converged in 25 iterations to a total energy of -1307.4564 eV
 Calculation not parallelised.

 ************************************ Title ************************************

 ***************************** General Parameters ******************************

 output verbosity                               : normal  (1)
 write checkpoint data to                       : Na.check
 type of calculation                            : geometry optimization
 stress calculation                             : off
 density difference calculation                 : off
 electron localisation func (ELF) calculation   : off
 Hirshfeld analysis                             : off
 molecular orbital projected DOS                : off
 deltaSCF calculation                           : off
 unlimited duration calculation
 timing information                             : on
 write extra output files                       : on
 write final potential to formatted file        : off
 write final density to formatted file          : off
 write BibTeX reference list                    : on
 write OTFG pseudopotential files               : on
 write electrostatic potential file             : on
 write bands file                               : on
 checkpoint writing                             : both castep_bin and check files

 output         length unit                     : A
 output           mass unit                     : amu
 output           time unit                     : ps
 output         charge unit                     : e
 output           spin unit                     : hbar/2
 output         energy unit                     : eV
 output          force unit                     : eV/A
 output       velocity unit                     : A/ps
 output       pressure unit                     : GPa
 output     inv_length unit                     : 1/A
 output      frequency unit                     : cm-1
 output force constant unit                     : eV/A**2
 output         volume unit                     : A**3
 output   IR intensity unit                     : (D/A)**2/amu
 output         dipole unit                     : D
 output         efield unit                     : eV/A/e
 output        entropy unit                     : J/mol/K

 wavefunctions paging                           : none
 random number generator seed                   : randomised (110001839)
 data distribution                              : optimal for this architecture
 optimization strategy                          : maximize speed(+++)

 *********************** Exchange-Correlation Parameters ***********************

 using functional                               : RSCAN
 relativistic treatment                         : Koelling-Harmon
 DFT+D: Semi-empirical dispersion correction    : off

 ************************* Pseudopotential Parameters **************************

 pseudopotential representation                 : reciprocal space
 <beta|phi> representation                      : reciprocal space
 spin-orbit coupling                            : off

 **************************** Basis Set Parameters *****************************

 basis set accuracy                             : EXTREME
 plane wave basis set cut-off                   :   783.6879   eV
 size of standard grid                          :     1.7500
 size of   fine   grid                          :     4.0000
 size of   fine   gmax                          :    57.3681   1/A
 finite basis set correction                    : automatic
 number of sample energies                      :          3
           sample  spacing                      :     5.0000   eV

 **************************** Electronic Parameters ****************************

 number of  electrons                           :  9.000
 net charge of system                           :  0.000
 treating system as non-spin-polarized
 number of bands                                :          9

 ********************* Electronic Minimization Parameters **********************

 Method: Treating system as metallic with density mixing treatment of electrons,
         and number of  SD  steps               :          1
         and number of  CG  steps               :          4

 total energy / atom convergence tol.           : 0.1000E-04   eV
 eigen-energy convergence tolerance             : 0.1000E-05   eV
 max force / atom convergence tol.              : ignored
 convergence tolerance window                   :          3   cycles
 max. number of SCF cycles                      :         30
 number of fixed-spin iterations                :         10
 smearing scheme                                : Gaussian
 smearing width                                 : 0.2000       eV
 Fermi energy convergence tolerance             : 0.2721E-13   eV
 periodic dipole correction                     : NONE

 ************************** Density Mixing Parameters **************************

 density-mixing scheme                          : Broyden
 max. length of mixing history                  :         20
 charge density mixing amplitude                : 0.8000

 *********************** Population Analysis Parameters ************************

 Population analysis with cutoff                :  3.000       A
 Population analysis output                     : summary and pdos components

 ********************** Geometry Optimization Parameters ***********************

 optimization method                            : LBFGS
 max. no. of LBFGS updates                      : unbounded
 variable cell method                           : fixed basis quality
 max. number of steps                           :         30
 estimated bulk modulus                         :  500.0       GPa
 estimated <frequency>                          :  1668.       cm-1
 geom line minimiser                            : on
 with line minimiser tolerance                  :     0.4000
 total energy convergence tolerance             : 0.2000E-04   eV/atom
        max ionic |force| tolerance             : 0.5000E-01   eV/A
 max ionic |displacement| tolerance             : 0.1000E-02   A
   max |stress component| tolerance             : 0.1000       GPa
 convergence tolerance window                   :          2   steps
 backup results every                           :          5   steps
 write geom trajectory file                     : on

                                      Unit Cell
        Real Lattice(A)                      Reciprocal Lattice(1/A)
    -2.1107000     2.1107000     2.1107000        0.000000000   1.488412685   1.488412685
     2.1107000    -2.1107000     2.1107000        1.488412685   0.000000000   1.488412685
     2.1107000     2.1107000    -2.1107000        1.488412685   1.488412685   0.000000000

                       Lattice parameters(A)       Cell Angles
                    a =      3.655840          alpha =  109.471221
                    b =      3.655840          beta  =  109.471221
                    c =      3.655840          gamma =  109.471221

                       Current cell volume =            37.613134       A**3
                                   density =             0.611217   AMU/A**3
                                           =             1.014949     g/cm^3

                                     Cell Contents
                         Total number of ions in cell =    1
                      Total number of species in cell =    1
                        Max number of any one species =    1

            x  Element    Atom        Fractional coordinates of atoms  x
            x            Number           u          v          w      x
            x  Na           1         0.000000   0.000000   0.000000   x

                         No user defined ionic velocities

                                   Details of Species

                               Mass of species in AMU
                                    Na   22.9897700

                          Electric Quadrupole Moment (Barn)
                                    Na    0.1040000 Isotope 23

                          Files used for pseudopotentials:
                                    Na 2|1.3|14|16|18|20U:30:21(qc=7)

                              k-Points For BZ Sampling
                       MP grid size for SCF calculation is  4  4  4
                            with an offset of   0.000  0.000  0.000
                       Number of kpoints used =             6

                               Symmetry and Constraints

                      Maximum deviation from symmetry =  0.00000         ANG

                      Number of symmetry operations   =          48
                      Number of ionic constraints     =           3
                      Point group of crystal =    32: Oh, m-3m, 4/m -3 2/m
                      Space group of crystal =   229: Im-3m, -I 4 2 3

             Set iprint > 1 for details on symmetry rotations/translations

                         Centre of mass is constrained
             Set iprint > 1 for details of linear ionic constraints

                         Number of cell constraints= 5
                         Cell constraints are:  1 1 1 0 0 0

                         External pressure/stress (GPa)
                          0.00000   0.00000   0.00000
                                    0.00000   0.00000
                                              0.00000

Final energy, E             =  -1308.934797142     eV
Final free energy (E-TS)    =  -1308.968502437     eV
(energies not corrected for finite basis set)

NB est. 0K energy (E-0.5TS)      =  -1308.951649790     eV

Calculating total energy with cut-off of  778.688 eV.
------------------------------------------------------------------------ <-- SCF
SCF loop      Energy           Fermi           Energy gain       Timer   <-- SCF
                               energy          per atom          (sec)   <-- SCF
------------------------------------------------------------------------ <-- SCF
Initial  -1.30893480E+003  0.00000000E+000                        30.80  <-- SCF
      1  -1.30896854E+003  2.65747906E-001   3.37435940E-002      31.31  <-- SCF
      2  -1.30896854E+003  2.65747906E-001   3.32101230E-008      34.00  <-- SCF
      3  -1.30896854E+003  2.65774925E-001   3.69289886E-008      36.71  <-- SCF
      4  -1.30896854E+003  2.65795461E-001   7.81978781E-009      39.46  <-- SCF
------------------------------------------------------------------------ <-- SCF

[...]

Calculating total energy with cut-off of  783.688 eV.
------------------------------------------------------------------------ <-- SCF
SCF loop      Energy           Fermi           Energy gain       Timer   <-- SCF
                               energy          per atom          (sec)   <-- SCF
------------------------------------------------------------------------ <-- SCF
Initial  -1.30893484E+003  0.00000000E+000                        44.03  <-- SCF
      1  -1.30896858E+003  2.65784839E-001   3.37470023E-002      44.55  <-- SCF
      2  -1.30896858E+003  2.65784838E-001   3.58932205E-009      47.32  <-- SCF
      3  -1.30896858E+003  2.65811301E-001   3.25635655E-008      50.06  <-- SCF
      4  -1.30896858E+003  2.65831431E-001   4.54678395E-009      52.85  <-- SCF
------------------------------------------------------------------------ <-- SCF

[...]

 For future reference: finite basis dEtot/dlog(Ecut) =      -0.004997eV
 Total energy corrected for finite basis set =   -1308.968574 eV

 *********** Symmetrised Stress Tensor ***********
 *          Cartesian components (GPa)           *
 *             x             y             z     *
 *  x      0.530367     -0.000000     -0.000000  *
 *  y     -0.000000      0.530367      0.000000  *
 *  z     -0.000000      0.000000      0.530367  *
 *  Pressure:   -0.5304                          *
 LBFGS: finished iteration     0 with enthalpy= -1.30896857E+003 eV

 +-----------+-----------------+-----------------+------------+-----+ <-- LBFGS
 | Parameter |      value      |    tolerance    |    units   | OK? | <-- LBFGS
 +-----------+-----------------+-----------------+------------+-----+ <-- LBFGS
 |  dE/ion   |   0.000000E+000 |   2.000000E-005 |         eV | No  | <-- LBFGS
 |   Smax    |   5.303667E-001 |   1.000000E-001 |        GPa | No  | <-- LBFGS
 +-----------+-----------------+-----------------+------------+-----+ <-- LBFGS

 Starting LBFGS iteration          1 ...

 +------------+-------------+-------------+-----------------+ <-- min LBFGS
 |    Step    |   lambda    |   F.delta'  |    enthalpy     | <-- min LBFGS
 +------------+-------------+-------------+-----------------+ <-- min LBFGS
 |  previous  |    0.000000 |    0.007925 |    -1308.968574 | <-- min LBFGS
 +------------+-------------+-------------+-----------------+ <-- min LBFGS

 LBFGS: starting iteration         1 with trial guess (lambda=  1.000000)

[...]

                Current cell volume =            37.573251 A**3
                            density =             0.611865 amu/A**3
                                    =             1.016026 g/cm^3

------------------------------------------------------------------------ <-- SCF
SCF loop      Energy           Fermi           Energy gain       Timer   <-- SCF
                               energy          per atom          (sec)   <-- SCF
------------------------------------------------------------------------ <-- SCF
Initial  -1.30893470E+003  0.00000000E+000                        64.81  <-- SCF
      1  -1.30896895E+003  2.69992748E-001   3.42477061E-002      65.40  <-- SCF
      2  -1.30896895E+003  2.69992747E-001   1.75409515E-006      68.13  <-- SCF
      3  -1.30896879E+003  2.69844776E-001  -1.60302056E-004      71.05  <-- SCF
      4  -1.30896875E+003  2.68596357E-001  -3.72393087E-005      73.98  <-- SCF
      5  -1.30896870E+003  2.68960364E-001  -4.65336882E-005      76.81  <-- SCF
      6  -1.30896870E+003  2.68966327E-001  -5.58324807E-008      79.54  <-- SCF
      7  -1.30896870E+003  2.68942860E-001   3.03986421E-008      82.29  <-- SCF
------------------------------------------------------------------------ <-- SCF

[...]

 *********** Symmetrised Stress Tensor ***********
 *          Cartesian components (GPa)           *
 *             x             y             z     *
 *  x      0.519963      0.000000      0.000000  *
 *  y      0.000000      0.519963     -0.000000  *
 *  z      0.000000     -0.000000      0.519963  *
 *  Pressure:   -0.5200                          *

 +------------+-------------+-------------+-----------------+ <-- min LBFGS
 |    Step    |   lambda    |   F.delta'  |    enthalpy     | <-- min LBFGS
 +------------+-------------+-------------+-----------------+ <-- min LBFGS
 |  previous  |    0.000000 |    0.007925 |    -1308.968574 | <-- min LBFGS
 | trial step |    1.000000 |    0.007764 |    -1308.968701 | <-- min LBFGS
 +------------+-------------+-------------+-----------------+ <-- min LBFGS

 LBFGS: improving iteration         1 with line minimization (lambda= 49.237844)

[...]

 +------------+-------------+-------------+-----------------+ <-- min LBFGS
 |    Step    |   lambda    |   F.delta'  |    enthalpy     | <-- min LBFGS
 +------------+-------------+-------------+-----------------+ <-- min LBFGS
 |  previous  |    0.000000 |    0.007925 |    -1308.968574 | <-- min LBFGS
 | trial step |    1.000000 |    0.007764 |    -1308.968701 | <-- min LBFGS
 |  line step |   49.237844 |    0.001108 |    -1308.972287 | <-- min LBFGS
 +------------+-------------+-------------+-----------------+ <-- min LBFGS

 LBFGS: finished iteration     1 with enthalpy= -1.30897229E+003 eV

 +-----------+-----------------+-----------------+------------+-----+ <-- LBFGS
 | Parameter |      value      |    tolerance    |    units   | OK? | <-- LBFGS
 +-----------+-----------------+-----------------+------------+-----+ <-- LBFGS
 |  dE/ion   |   3.713340E-003 |   2.000000E-005 |         eV | No  | <-- LBFGS
 |   Smax    |   7.677823E-002 |   1.000000E-001 |        GPa | Yes | <-- LBFGS
 +-----------+-----------------+-----------------+------------+-----+ <-- LBFGS

[...]

 +-----------+-----------------+-----------------+------------+-----+ <-- LBFGS
 | Parameter |      value      |    tolerance    |    units   | OK? | <-- LBFGS
 +-----------+-----------------+-----------------+------------+-----+ <-- LBFGS
 |  dE/ion   |   6.629441E-005 |   2.000000E-005 |         eV | No  | <-- LBFGS
 |   Smax    |   1.064955E-002 |   1.000000E-001 |        GPa | Yes | <-- LBFGS
 +-----------+-----------------+-----------------+------------+-----+ <-- LBFGS

 Starting LBFGS iteration          3 ...

 +------------+-------------+-------------+-----------------+ <-- min LBFGS
 |    Step    |   lambda    |   F.delta'  |    enthalpy     | <-- min LBFGS
 +------------+-------------+-------------+-----------------+ <-- min LBFGS
 |  previous  |    0.000000 |    0.000153 |    -1308.972353 | <-- min LBFGS
 +------------+-------------+-------------+-----------------+ <-- min LBFGS

 LBFGS: starting iteration         3 with trial guess (lambda=  1.000000)

[...]

------------------------------------------------------------------------ <-- SCF
SCF loop      Energy           Fermi           Energy gain       Timer   <-- SCF
                               energy          per atom          (sec)   <-- SCF
------------------------------------------------------------------------ <-- SCF
Initial  -1.30893814E+003  0.00000000E+000                       164.02  <-- SCF
      1  -1.30897275E+003  4.58044842E-001   3.46057039E-002     164.59  <-- SCF
      2  -1.30897275E+003  4.58044840E-001   3.10374153E-006     167.34  <-- SCF
      3  -1.30897249E+003  4.57364450E-001  -2.61080432E-004     170.24  <-- SCF
      4  -1.30897242E+003  4.56363152E-001  -6.55931468E-005     173.16  <-- SCF
      5  -1.30897234E+003  4.56642979E-001  -7.86819266E-005     175.96  <-- SCF
      6  -1.30897234E+003  4.56624099E-001  -9.32937577E-008     178.66  <-- SCF
      7  -1.30897234E+003  4.56610963E-001   4.46874849E-008     181.40  <-- SCF
------------------------------------------------------------------------ <-- SCF

Final energy, E             =  -1308.938639081     eV
Final free energy (E-TS)    =  -1308.972344376     eV
(energies not corrected for finite basis set)

NB est. 0K energy (E-0.5TS)      =  -1308.955491729     eV

[...]

 +------------+-------------+-------------+-----------------+ <-- min LBFGS
 |    Step    |   lambda    |   F.delta'  |    enthalpy     | <-- min LBFGS
 +------------+-------------+-------------+-----------------+ <-- min LBFGS
 |  previous  |    0.000000 |    0.000153 |    -1308.972353 | <-- min LBFGS
 | trial step |    1.000000 |   -0.000219 |    -1308.972348 | <-- min LBFGS
 +------------+-------------+-------------+-----------------+ <-- min LBFGS

 LBFGS: finished iteration     3 with enthalpy= -1.30897235E+003 eV

 +-----------+-----------------+-----------------+------------+-----+ <-- LBFGS
 | Parameter |      value      |    tolerance    |    units   | OK? | <-- LBFGS
 +-----------+-----------------+-----------------+------------+-----+ <-- LBFGS
 |  dE/ion   |   4.773486E-006 |   2.000000E-005 |         eV | Yes | <-- LBFGS
 |   Smax    |   1.529062E-002 |   1.000000E-001 |        GPa | Yes | <-- LBFGS
 +-----------+-----------------+-----------------+------------+-----+ <-- LBFGS

 LBFGS: Geometry optimization completed successfully.

 LBFGS: Final Configuration:

                                      Unit Cell
        Real Lattice(A)              Reciprocal Lattice(1/A)
    -2.0670285     2.0670285     2.0670285        0.000000000   1.519859375   1.519859375
     2.0670285    -2.0670285     2.0670285        1.519859375   0.000000000   1.519859375
     2.0670285     2.0670285    -2.0670285        1.519859375   1.519859375   0.000000000

                       Lattice parameters(A)       Cell Angles
                    a =      3.580198          alpha =  109.471221
                    b =      3.580198          beta  =  109.471221
                    c =      3.580198          gamma =  109.471221

                Current cell volume =            35.326401 A**3
                            density =             0.650782 amu/A**3
                                    =             1.080648 g/cm^3

 LBFGS: Final Enthalpy     = -1.30897235E+003 eV
 LBFGS: Final bulk modulus =       7.68989 GPa

 ******************************** Symmetrised Forces ********************************
 *                           Cartesian components (eV/A)                            *
 *                         x                    y                    z              *
 * Na              1      0.00000              0.00000              0.00000         *

 *********** Symmetrised Stress Tensor ***********
 *          Cartesian components (GPa)           *
 *             x             y             z     *
 *  x     -0.015291     -0.000000     -0.000000  *
 *  y     -0.000000     -0.015291      0.000000  *
 *  z     -0.000000      0.000000     -0.015291  *
 *  Pressure:    0.0153                          *

 Pseudo atomic calculation performed for Na 2s2 2p6 3s1

 Converged in 25 iterations to a total energy of -1307.4564 eV
Charge spilling parameter for spin component 1 = 0.01%

            Orbital Populations
     Ion    Atom   Orbital             Charge
     Na     1      S                    2.000
     Na     1      Px                   2.001
     Na     1      Py                   2.001
     Na     1      Pz                   2.001
     Na     1      S                    0.232
     Na     1      Px                   0.501
     Na     1      Py                   0.201
     Na     1      Pz                   0.062
                           Total:       9.000

     Atomic Populations (Mulliken)
Species          Ion     s      p      d      f     Total  Charge (e)
  Na              1     2.23   6.77   0.00   0.00   9.00     0.00

                 Bond                   Population      Length (A)

Writing analysis data to Na.castep_bin

Writing model to Na.check

 A BibTeX formatted list of references used in this run has been written to
 Na.bib

Initialisation time =      4.91 s
Calculation time    =    189.12 s
Finalisation time   =      1.67 s
Total time          =    195.71 s