 Run started: Thu, 11 Jul 2019 14:10:17 +0100

 Atomic calculation performed for C: 1s2 2s2 2p2

 Converged in 45 iterations to an ae energy of -1028.130 eV

   | Pseudopotential Report - Date of generation 11-07-2019   |
   | Element: C Ionic charge:  4.00 Level of theory: RSCAN    |
   | Atomic Solver: Koelling-Harmon                           |
   |               Reference Electronic Structure             |
   |         Orbital         Occupation         Energy        |
   |            2s              2.000           -0.534        |
   |            2p              2.000           -0.196        |
   |                 Pseudopotential Definition               |
   |        Beta     l      e      Rc     scheme   norm       |
   |          1      0   -0.534   1.395     qc      0         |
   |          2      0    0.250   1.395     qc      0         |
   |          3      1   -0.196   1.395     qc      0         |
   |          4      1    0.250   1.395     qc      0         |
   |         loc     2    0.000   1.395     pn      0         |
   | Augmentation charge Rinner = 0.983                       |
   | Partial core correction Rc = 0.983                       |
   | "2|1.4|10|12|13|20:21(qc=7)"                             |
   |      Author: Chris J. Pickard, Cambridge University      |

 Pseudo atomic calculation performed for C 2s2 2p2

 Converged in 17 iterations to a total energy of -147.1788 eV
 Calculation not parallelised.

 ************************************ Title ************************************

 ***************************** General Parameters ******************************

 output verbosity                               : normal  (1)
 write checkpoint data to                       : C.check
 type of calculation                            : geometry optimization
 stress calculation                             : off
 density difference calculation                 : off
 electron localisation func (ELF) calculation   : off
 Hirshfeld analysis                             : off
 molecular orbital projected DOS                : off
 deltaSCF calculation                           : off
 unlimited duration calculation
 timing information                             : on
 write extra output files                       : on
 write final potential to formatted file        : off
 write final density to formatted file          : off
 write BibTeX reference list                    : on
 write OTFG pseudopotential files               : on
 write electrostatic potential file             : on
 write bands file                               : on
 checkpoint writing                             : both castep_bin and check files

 output         length unit                     : A
 output           mass unit                     : amu
 output           time unit                     : ps
 output         charge unit                     : e
 output           spin unit                     : hbar/2
 output         energy unit                     : eV
 output          force unit                     : eV/A
 output       velocity unit                     : A/ps
 output       pressure unit                     : GPa
 output     inv_length unit                     : 1/A
 output      frequency unit                     : cm-1
 output force constant unit                     : eV/A**2
 output         volume unit                     : A**3
 output   IR intensity unit                     : (D/A)**2/amu
 output         dipole unit                     : D
 output         efield unit                     : eV/A/e
 output        entropy unit                     : J/mol/K

 wavefunctions paging                           : none
 random number generator seed                   : randomised (141017234)
 data distribution                              : optimal for this architecture
 optimization strategy                          : maximize speed(+++)

 *********************** Exchange-Correlation Parameters ***********************

 using functional                               : RSCAN
 relativistic treatment                         : Koelling-Harmon
 DFT+D: Semi-empirical dispersion correction    : off

 ************************* Pseudopotential Parameters **************************

 pseudopotential representation                 : reciprocal space
 <beta|phi> representation                      : reciprocal space
 spin-orbit coupling                            : off

 **************************** Basis Set Parameters *****************************

 basis set accuracy                             : EXTREME
 plane wave basis set cut-off                   :   565.9968   eV
 size of standard grid                          :     1.7500
 size of   fine   grid                          :     4.0000
 size of   fine   gmax                          :    48.7535   1/A
 finite basis set correction                    : automatic
 number of sample energies                      :          3
           sample  spacing                      :     5.0000   eV

 **************************** Electronic Parameters ****************************

 number of  electrons                           :  8.000
 net charge of system                           :  0.000
 treating system as non-spin-polarized
 number of bands                                :          8

 ********************* Electronic Minimization Parameters **********************

 Method: Treating system as metallic with density mixing treatment of electrons,
         and number of  SD  steps               :          1
         and number of  CG  steps               :          4

 total energy / atom convergence tol.           : 0.1000E-04   eV
 eigen-energy convergence tolerance             : 0.1000E-05   eV
 max force / atom convergence tol.              : ignored
 convergence tolerance window                   :          3   cycles
 max. number of SCF cycles                      :         30
 number of fixed-spin iterations                :         10
 smearing scheme                                : Gaussian
 smearing width                                 : 0.2000       eV
 Fermi energy convergence tolerance             : 0.2721E-13   eV
 periodic dipole correction                     : NONE

 ************************** Density Mixing Parameters **************************

 density-mixing scheme                          : Broyden
 max. length of mixing history                  :         20
 charge density mixing amplitude                : 0.8000

 *********************** Population Analysis Parameters ************************

 Population analysis with cutoff                :  3.000       A
 Population analysis output                     : summary and pdos components

 ********************** Geometry Optimization Parameters ***********************

 optimization method                            : LBFGS
 max. no. of LBFGS updates                      : unbounded
 variable cell method                           : fixed basis quality
 max. number of steps                           :         30
 estimated bulk modulus                         :  500.0       GPa
 estimated <frequency>                          :  1668.       cm-1
 geom line minimiser                            : on
 with line minimiser tolerance                  :     0.4000
 total energy convergence tolerance             : 0.2000E-04   eV/atom
        max ionic |force| tolerance             : 0.5000E-01   eV/A
 max ionic |displacement| tolerance             : 0.1000E-02   A
   max |stress component| tolerance             : 0.1000       GPa
 convergence tolerance window                   :          2   steps
 backup results every                           :          5   steps
 write geom trajectory file                     : on

                                      Unit Cell
        Real Lattice(A)                      Reciprocal Lattice(1/A)
     1.7833030     1.7833030     0.0000000        1.761670705   1.761670705  -1.761670705
     1.7833030     0.0000000     1.7833030        1.761670705  -1.761670705   1.761670705
     0.0000000     1.7833030     1.7833030       -1.761670705   1.761670705   1.761670705

                       Lattice parameters(A)       Cell Angles
                    a =      2.521971          alpha =   60.000000
                    b =      2.521971          beta  =   60.000000
                    c =      2.521971          gamma =   60.000000

                       Current cell volume =            11.342412       A**3
                                   density =             2.117839   AMU/A**3
                                           =             3.516754     g/cm^3

                                     Cell Contents
                         Total number of ions in cell =    2
                      Total number of species in cell =    1
                        Max number of any one species =    2

            x  Element    Atom        Fractional coordinates of atoms  x
            x            Number           u          v          w      x
            x  C            1         0.000000   0.000000   0.000000   x
            x  C            2         0.250000   0.250000   0.250000   x

                         No user defined ionic velocities

                                   Details of Species

                               Mass of species in AMU
                                    C   12.0107000

                          Electric Quadrupole Moment (Barn)
                                    C    0.0332700 Isotope 11

                          Files used for pseudopotentials:
                                    C 2|1.4|10|12|13|20:21(qc=7)

                              k-Points For BZ Sampling
                       MP grid size for SCF calculation is  5  5  5
                            with an offset of   0.000  0.000  0.000
                       Number of kpoints used =            10

                               Symmetry and Constraints

                      Maximum deviation from symmetry =  0.00000         ANG

                      Number of symmetry operations   =          48
                      Number of ionic constraints     =           3
                      Point group of crystal =    32: Oh, m-3m, 4/m -3 2/m
                      Space group of crystal =   227: Fd-3m, F 4d 2 3 -1d

             Set iprint > 1 for details on symmetry rotations/translations

                         Centre of mass is constrained
             Set iprint > 1 for details of linear ionic constraints

                         Number of cell constraints= 5
                         Cell constraints are:  1 1 1 0 0 0

                         External pressure/stress (GPa)
                          0.00000   0.00000   0.00000
                                    0.00000   0.00000
                                              0.00000

Final energy, E             =  -313.8072390667     eV
Final free energy (E-TS)    =  -313.8072390667     eV
(energies not corrected for finite basis set)

NB est. 0K energy (E-0.5TS)      =  -313.8072390667     eV

Calculating total energy with cut-off of  560.997 eV.
------------------------------------------------------------------------ <-- SCF
SCF loop      Energy           Fermi           Energy gain       Timer   <-- SCF
                               energy          per atom          (sec)   <-- SCF
------------------------------------------------------------------------ <-- SCF
Initial  -3.13807239E+002  0.00000000E+000                         9.18  <-- SCF
      1  -3.13807868E+002  1.16378484E+001   3.14492631E-004       9.36  <-- SCF
      2  -3.13807868E+002  1.16378484E+001   1.09803353E-008       9.93  <-- SCF
      3  -3.13807869E+002  1.16379192E+001   3.25581179E-007      10.50  <-- SCF
      4  -3.13807869E+002  1.16379294E+001   1.14894220E-008      11.07  <-- SCF
------------------------------------------------------------------------ <-- SCF

[...]

Calculating total energy with cut-off of  565.997 eV.
------------------------------------------------------------------------ <-- SCF
SCF loop      Energy           Fermi           Energy gain       Timer   <-- SCF
                               energy          per atom          (sec)   <-- SCF
------------------------------------------------------------------------ <-- SCF
Initial  -3.13807869E+002  0.00000000E+000                        11.87  <-- SCF
      1  -3.13808566E+002  1.16379209E+001   3.48871475E-004      12.07  <-- SCF
      2  -3.13808566E+002  1.16379209E+001   8.86203305E-009      12.64  <-- SCF
      3  -3.13808567E+002  1.16380032E+001   3.78210842E-007      13.20  <-- SCF
      4  -3.13808567E+002  1.16380159E+001   1.24798982E-008      13.77  <-- SCF
------------------------------------------------------------------------ <-- SCF

[...]

 For future reference: finite basis dEtot/dlog(Ecut) =      -0.056242eV
 Total energy corrected for finite basis set =    -313.808358 eV

 *********** Symmetrised Stress Tensor ***********
 *          Cartesian components (GPa)           *
 *             x             y             z     *
 *  x      4.404136      0.000000     -0.000000  *
 *  y      0.000000      4.404136      0.000000  *
 *  z     -0.000000      0.000000      4.404136  *
 *  Pressure:   -4.4041                          *
 LBFGS: finished iteration     0 with enthalpy= -3.13808358E+002 eV

 +-----------+-----------------+-----------------+------------+-----+ <-- LBFGS
 | Parameter |      value      |    tolerance    |    units   | OK? | <-- LBFGS
 +-----------+-----------------+-----------------+------------+-----+ <-- LBFGS
 |  dE/ion   |   0.000000E+000 |   2.000000E-005 |         eV | No  | <-- LBFGS
 |   Smax    |   4.404136E+000 |   1.000000E-001 |        GPa | No  | <-- LBFGS
 +-----------+-----------------+-----------------+------------+-----+ <-- LBFGS

 Starting LBFGS iteration          1 ...

 +------------+-------------+-------------+-----------------+ <-- min LBFGS
 |    Step    |   lambda    |   F.delta'  |    enthalpy     | <-- min LBFGS
 +------------+-------------+-------------+-----------------+ <-- min LBFGS
 |  previous  |    0.000000 |    0.019846 |     -313.808358 | <-- min LBFGS
 +------------+-------------+-------------+-----------------+ <-- min LBFGS

 LBFGS: starting iteration         1 with trial guess (lambda=  1.000000)

[...]

                Current cell volume =            11.242798 A**3
                            density =             2.136603 amu/A**3
                                    =             3.547913 g/cm^3

------------------------------------------------------------------------ <-- SCF
SCF loop      Energy           Fermi           Energy gain       Timer   <-- SCF
                               energy          per atom          (sec)   <-- SCF
------------------------------------------------------------------------ <-- SCF
Initial  -3.13807905E+002  0.00000000E+000                        15.85  <-- SCF
      1  -3.13810505E+002  1.18062263E+001   1.29993717E-003      16.08  <-- SCF
      2  -3.13810506E+002  1.18062262E+001   5.30828181E-007      16.67  <-- SCF
      3  -3.13810162E+002  1.17798719E+001  -1.72227433E-004      17.31  <-- SCF
      4  -3.13810152E+002  1.17746510E+001  -4.74166641E-006      17.88  <-- SCF
      5  -3.13810152E+002  1.17742484E+001   4.83792333E-008      18.45  <-- SCF
------------------------------------------------------------------------ <-- SCF

[...]

 *********** Symmetrised Stress Tensor ***********
 *          Cartesian components (GPa)           *
 *             x             y             z     *
 *  x      0.505700      0.000000      0.000000  *
 *  y      0.000000      0.505700      0.000000  *
 *  z      0.000000      0.000000      0.505700  *
 *  Pressure:   -0.5057                          *

 +------------+-------------+-------------+-----------------+ <-- min LBFGS
 |    Step    |   lambda    |   F.delta'  |    enthalpy     | <-- min LBFGS
 +------------+-------------+-------------+-----------------+ <-- min LBFGS
 |  previous  |    0.000000 |    0.019846 |     -313.808358 | <-- min LBFGS
 | trial step |    1.000000 |    0.002265 |     -313.810008 | <-- min LBFGS
 +------------+-------------+-------------+-----------------+ <-- min LBFGS

 LBFGS: finished iteration     1 with enthalpy= -3.13810008E+002 eV

 +-----------+-----------------+-----------------+------------+-----+ <-- LBFGS
 | Parameter |      value      |    tolerance    |    units   | OK? | <-- LBFGS
 +-----------+-----------------+-----------------+------------+-----+ <-- LBFGS
 |  dE/ion   |   8.248635E-004 |   2.000000E-005 |         eV | No  | <-- LBFGS
 |   Smax    |   5.056998E-001 |   1.000000E-001 |        GPa | No  | <-- LBFGS
 +-----------+-----------------+-----------------+------------+-----+ <-- LBFGS

 Starting LBFGS iteration          2 ...

 +------------+-------------+-------------+-----------------+ <-- min LBFGS
 |    Step    |   lambda    |   F.delta'  |    enthalpy     | <-- min LBFGS
 +------------+-------------+-------------+-----------------+ <-- min LBFGS
 |  previous  |    0.000000 |    0.002265 |     -313.810008 | <-- min LBFGS
 +------------+-------------+-------------+-----------------+ <-- min LBFGS

 LBFGS: starting iteration         2 with trial guess (lambda=  1.000000)

[...]

------------------------------------------------------------------------ <-- SCF
SCF loop      Energy           Fermi           Energy gain       Timer   <-- SCF
                               energy          per atom          (sec)   <-- SCF
------------------------------------------------------------------------ <-- SCF
Initial  -3.13810177E+002  0.00000000E+000                        20.50  <-- SCF
      1  -3.13810220E+002  1.17958104E+001   2.13382381E-005      20.72  <-- SCF
      2  -3.13810220E+002  1.17958104E+001   8.15116302E-009      21.30  <-- SCF
      3  -3.13810214E+002  1.17924673E+001  -2.78549687E-006      21.86  <-- SCF
      4  -3.13810214E+002  1.17917758E+001  -6.55290543E-008      22.43  <-- SCF
------------------------------------------------------------------------ <-- SCF

Final energy, E             =  -313.8102141145     eV
Final free energy (E-TS)    =  -313.8102141145     eV
(energies not corrected for finite basis set)

NB est. 0K energy (E-0.5TS)      =  -313.8102141145     eV

[...]

 +------------+-------------+-------------+-----------------+ <-- min LBFGS
 |    Step    |   lambda    |   F.delta'  |    enthalpy     | <-- min LBFGS
 +------------+-------------+-------------+-----------------+ <-- min LBFGS
 |  previous  |    0.000000 |    0.002265 |     -313.810008 | <-- min LBFGS
 | trial step |    1.000000 |   -0.000088 |     -313.810027 | <-- min LBFGS
 +------------+-------------+-------------+-----------------+ <-- min LBFGS

 LBFGS: finished iteration     2 with enthalpy= -3.13810027E+002 eV

 +-----------+-----------------+-----------------+------------+-----+ <-- LBFGS
 | Parameter |      value      |    tolerance    |    units   | OK? | <-- LBFGS
 +-----------+-----------------+-----------------+------------+-----+ <-- LBFGS
 |  dE/ion   |   9.595502E-006 |   2.000000E-005 |         eV | Yes | <-- LBFGS
 |   Smax    |   1.967811E-002 |   1.000000E-001 |        GPa | Yes | <-- LBFGS
 +-----------+-----------------+-----------------+------------+-----+ <-- LBFGS

 LBFGS: Geometry optimization completed successfully.

 LBFGS: Final Configuration:

                                      Unit Cell
        Real Lattice(A)              Reciprocal Lattice(1/A)
     1.7773924     1.7773924    -0.0000000        1.767529066   1.767529066  -1.767529066
     1.7773924     0.0000000     1.7773924        1.767529066  -1.767529066   1.767529066
    -0.0000000     1.7773924     1.7773924       -1.767529066   1.767529066   1.767529066

                       Lattice parameters(A)       Cell Angles
                    a =      2.513612          alpha =   60.000000
                    b =      2.513612          beta  =   60.000000
                    c =      2.513612          gamma =   60.000000

                Current cell volume =            11.230004 A**3
                            density =             2.139037 amu/A**3
                                    =             3.551955 g/cm^3

 LBFGS: Final Enthalpy     = -3.13810027E+002 eV
 LBFGS: Final bulk modulus unchanged from initial value

 ******************************** Symmetrised Forces ********************************
 *                           Cartesian components (eV/A)                            *
 *                         x                    y                    z              *
 * C               1      0.00000              0.00000              0.00000         *
 * C               2      0.00000              0.00000              0.00000         *

 *********** Symmetrised Stress Tensor ***********
 *          Cartesian components (GPa)           *
 *             x             y             z     *
 *  x     -0.019678     -0.000000     -0.000000  *
 *  y     -0.000000     -0.019678     -0.000000  *
 *  z     -0.000000     -0.000000     -0.019678  *
 *  Pressure:    0.0197                          *

 Pseudo atomic calculation performed for C 2s2 2p2

 Converged in 17 iterations to a total energy of -147.1788 eV
Charge spilling parameter for spin component 1 = 0.41%

            Orbital Populations
     Ion    Atom   Orbital             Charge
      C     1      S                    1.104
      C     1      Px                   0.949
      C     1      Py                   0.979
      C     1      Pz                   0.968
      C     2      S                    1.104
      C     2      Px                   0.949
      C     2      Py                   0.979
      C     2      Pz                   0.968
                           Total:       8.000

     Atomic Populations (Mulliken)
Species          Ion     s      p      d      f     Total  Charge (e)
  C               1     1.10   2.90   0.00   0.00   4.00     0.00
  C               2     1.10   2.90   0.00   0.00   4.00     0.00

                 Bond                   Population      Length (A)
               C 1 -- C 2                    3.02        1.53927

Writing analysis data to C.castep_bin

Writing model to C.check

 A BibTeX formatted list of references used in this run has been written to
 C.bib

Initialisation time =      2.99 s
Calculation time    =     21.71 s
Finalisation time   =      0.27 s
Total time          =     24.97 s