 Run started: Mon, 15 Jul 2019 15:32:46 +0100
 Info: number of up-spin electrons is not equal to the
       number of down-spins but spin_polarized=false
     - consider setting spin_polarized=true.

 Atomic calculation performed for Ag:

 Converged in 46 iterations to an ae energy of -144656.542 eV

   | Pseudopotential Report - Date of generation 15-07-2019   |
   | Element: Ag Ionic charge: 19.00 Level of theory: PBE     |
   | Atomic Solver: Koelling-Harmon                           |
   |               Reference Electronic Structure             |
   |         Orbital         Occupation         Energy        |
   |            4s              2.000           -3.493        |
   |            4p              6.000           -2.152        |
   |            4d             10.000           -0.274        |
   |            5s              1.000           -0.162        |
   |                 Pseudopotential Definition               |
   |        Beta     l      e      Rc     scheme   norm       |
   |          1      0   -3.493   1.504     qc      0         |
   |          2      0   -0.162   1.504     qc      0         |
   |          3      0    0.250   1.504     qc      0         |
   |          4      1   -2.152   1.504     qc      0         |
   |          5      1    0.250   1.504     qc      0         |
   |          6      2   -0.274   1.504     qc      0         |
   |          7      2    0.250   1.504     qc      0         |
   |         loc     3    0.000   1.504     pn      0         |
   | Augmentation charge Rinner = 0.798                       |
   | Partial core correction Rc = 0.798                       |
   | "3|1.5|1.5|0.8|15|17|19|40U:50:41:42(qc=7)"              |
   |      Author: Chris J. Pickard, Cambridge University      |

 Pseudo atomic calculation performed for Ag 4s2 4p6 4d10 5s1

 Converged in 37 iterations to a total energy of -4322.0821 eV
 Calculation not parallelised.

 ************************************ Title ************************************

 ***************************** General Parameters ******************************

 output verbosity                               : normal  (1)
 write checkpoint data to                       : Ag.check
 type of calculation                            : geometry optimization
 stress calculation                             : off
 density difference calculation                 : off
 electron localisation func (ELF) calculation   : off
 Hirshfeld analysis                             : off
 molecular orbital projected DOS                : off
 deltaSCF calculation                           : off
 unlimited duration calculation
 timing information                             : on
 write extra output files                       : on
 write final potential to formatted file        : off
 write final density to formatted file          : off
 write BibTeX reference list                    : on
 write OTFG pseudopotential files               : on
 write electrostatic potential file             : on
 write bands file                               : on
 checkpoint writing                             : both castep_bin and check files

 output         length unit                     : A
 output           mass unit                     : amu
 output           time unit                     : ps
 output         charge unit                     : e
 output           spin unit                     : hbar/2
 output         energy unit                     : eV
 output          force unit                     : eV/A
 output       velocity unit                     : A/ps
 output       pressure unit                     : GPa
 output     inv_length unit                     : 1/A
 output      frequency unit                     : cm-1
 output force constant unit                     : eV/A**2
 output         volume unit                     : A**3
 output   IR intensity unit                     : (D/A)**2/amu
 output         dipole unit                     : D
 output         efield unit                     : eV/A/e
 output        entropy unit                     : J/mol/K

 wavefunctions paging                           : none
 random number generator seed                   : randomised (153246212)
 data distribution                              : optimal for this architecture
 optimization strategy                          : maximize speed(+++)

 *********************** Exchange-Correlation Parameters ***********************

 using functional                               : Perdew Burke Ernzerhof
 relativistic treatment                         : Koelling-Harmon
 DFT+D: Semi-empirical dispersion correction    : off

 ************************* Pseudopotential Parameters **************************

 pseudopotential representation                 : reciprocal space
 <beta|phi> representation                      : reciprocal space
 spin-orbit coupling                            : off

 **************************** Basis Set Parameters *****************************

 basis set accuracy                             : EXTREME
 plane wave basis set cut-off                   :   827.2261   eV
 size of standard grid                          :     1.7500
 size of   fine   grid                          :     4.0000
 size of   fine   gmax                          :    58.9401   1/A
 finite basis set correction                    : automatic
 number of sample energies                      :          3
           sample  spacing                      :     5.0000   eV

 **************************** Electronic Parameters ****************************

 number of  electrons                           :  19.00
 net charge of system                           :  0.000
 treating system as non-spin-polarized
 number of bands                                :         14

 ********************* Electronic Minimization Parameters **********************

 Method: Treating system as metallic with density mixing treatment of electrons,
         and number of  SD  steps               :          1
         and number of  CG  steps               :          4

 total energy / atom convergence tol.           : 0.1000E-04   eV
 eigen-energy convergence tolerance             : 0.1000E-05   eV
 max force / atom convergence tol.              : ignored
 convergence tolerance window                   :          3   cycles
 max. number of SCF cycles                      :         30
 number of fixed-spin iterations                :         10
 smearing scheme                                : Gaussian
 smearing width                                 : 0.2000       eV
 Fermi energy convergence tolerance             : 0.2721E-13   eV
 periodic dipole correction                     : NONE

 ************************** Density Mixing Parameters **************************

 density-mixing scheme                          : Broyden
 max. length of mixing history                  :         20
 charge density mixing amplitude                : 0.8000

 *********************** Population Analysis Parameters ************************

 Population analysis with cutoff                :  3.000       A
 Population analysis output                     : summary and pdos components

 ********************** Geometry Optimization Parameters ***********************

 optimization method                            : LBFGS
 max. no. of LBFGS updates                      : unbounded
 variable cell method                           : fixed basis quality
 max. number of steps                           :         30
 estimated bulk modulus                         :  500.0       GPa
 estimated <frequency>                          :  1668.       cm-1
 geom line minimiser                            : on
 with line minimiser tolerance                  :     0.4000
 total energy convergence tolerance             : 0.2000E-04   eV/atom
        max ionic |force| tolerance             : 0.5000E-01   eV/A
 max ionic |displacement| tolerance             : 0.1000E-02   A
   max |stress component| tolerance             : 0.1000       GPa
 convergence tolerance window                   :          2   steps
 backup results every                           :          5   steps
 write geom trajectory file                     : on

                                      Unit Cell
        Real Lattice(A)                      Reciprocal Lattice(1/A)
     2.0430000     2.0430000     0.0000000        1.537735024   1.537735024  -1.537735024
     2.0430000     0.0000000     2.0430000        1.537735024  -1.537735024   1.537735024
     0.0000000     2.0430000     2.0430000       -1.537735024   1.537735024   1.537735024

                       Lattice parameters(A)       Cell Angles
                    a =      2.889238          alpha =   60.000000
                    b =      2.889238          beta  =   60.000000
                    c =      2.889238          gamma =   60.000000

                       Current cell volume =            17.054347       A**3
                                   density =             6.324968   AMU/A**3
                                           =            10.502856     g/cm^3

                                     Cell Contents
                         Total number of ions in cell =    1
                      Total number of species in cell =    1
                        Max number of any one species =    1

            x  Element    Atom        Fractional coordinates of atoms  x
            x            Number           u          v          w      x
            x  Ag           1         0.000000   0.000000   0.000000   x

                         No user defined ionic velocities

                                   Details of Species

                               Mass of species in AMU
                                    Ag  107.8682000

                          Electric Quadrupole Moment (Barn)
                                    Ag    1.0000000 No Isotope Defined

                          Files used for pseudopotentials:
                                    Ag 3|1.5|1.5|0.8|15|17|19|40U:50:41:42(qc=7)

                              k-Points For BZ Sampling
                       MP grid size for SCF calculation is  5  5  5
                            with an offset of   0.000  0.000  0.000
                       Number of kpoints used =            10

                               Symmetry and Constraints

                      Maximum deviation from symmetry =  0.00000         ANG

                      Number of symmetry operations   =          48
                      Number of ionic constraints     =           3
                      Point group of crystal =    32: Oh, m-3m, 4/m -3 2/m
                      Space group of crystal =   225: Fm-3m, -F 4 2 3

             Set iprint > 1 for details on symmetry rotations/translations

                         Centre of mass is constrained
             Set iprint > 1 for details of linear ionic constraints

                         Number of cell constraints= 5
                         Cell constraints are:  1 1 1 0 0 0

                         External pressure/stress (GPa)
                          0.00000   0.00000   0.00000
                                    0.00000   0.00000
                                              0.00000

Final energy, E             =  -4325.191334113     eV
Final free energy (E-TS)    =  -4325.196631736     eV
(energies not corrected for finite basis set)

NB est. 0K energy (E-0.5TS)      =  -4325.193982924     eV

Calculating total energy with cut-off of  822.226 eV.
------------------------------------------------------------------------ <-- SCF
SCF loop      Energy           Fermi           Energy gain       Timer   <-- SCF
                               energy          per atom          (sec)   <-- SCF
------------------------------------------------------------------------ <-- SCF
Initial  -4.32519141E+003  0.00000000E+000                        29.64  <-- SCF
      1  -4.32519669E+003  1.27040732E+001   5.27811194E-003      30.20  <-- SCF
      2  -4.32519669E+003  1.27040732E+001   1.19590704E-007      32.02  <-- SCF
      3  -4.32519669E+003  1.27040803E+001   7.83022863E-008      33.87  <-- SCF
      4  -4.32519669E+003  1.27040677E+001   3.96147929E-008      35.71  <-- SCF
------------------------------------------------------------------------ <-- SCF

[...]

Calculating total energy with cut-off of  827.226 eV.
------------------------------------------------------------------------ <-- SCF
SCF loop      Energy           Fermi           Energy gain       Timer   <-- SCF
                               energy          per atom          (sec)   <-- SCF
------------------------------------------------------------------------ <-- SCF
Initial  -4.32519147E+003  0.00000000E+000                        38.81  <-- SCF
      1  -4.32519675E+003  1.27040906E+001   5.28161820E-003      39.40  <-- SCF
      2  -4.32519675E+003  1.27040906E+001   3.27145707E-008      41.24  <-- SCF
      3  -4.32519675E+003  1.27040572E+001   3.49141036E-008      43.07  <-- SCF
      4  -4.32519675E+003  1.27040856E+001   1.24036947E-008      44.88  <-- SCF
------------------------------------------------------------------------ <-- SCF

[...]

 For future reference: finite basis dEtot/dlog(Ecut) =      -0.011871eV
 Total energy corrected for finite basis set =   -4325.196755 eV

 *********** Symmetrised Stress Tensor ***********
 *          Cartesian components (GPa)           *
 *             x             y             z     *
 *  x     -3.588513      0.000000     -0.000000  *
 *  y      0.000000     -3.588513      0.000000  *
 *  z     -0.000000      0.000000     -3.588513  *
 *  Pressure:    3.5885                          *
 LBFGS: finished iteration     0 with enthalpy= -4.32519676E+003 eV

 +-----------+-----------------+-----------------+------------+-----+ <-- LBFGS
 | Parameter |      value      |    tolerance    |    units   | OK? | <-- LBFGS
 +-----------+-----------------+-----------------+------------+-----+ <-- LBFGS
 |  dE/ion   |   0.000000E+000 |   2.000000E-005 |         eV | No  | <-- LBFGS
 |   Smax    |   3.588513E+000 |   1.000000E-001 |        GPa | No  | <-- LBFGS
 +-----------+-----------------+-----------------+------------+-----+ <-- LBFGS

 Starting LBFGS iteration          1 ...

 +------------+-------------+-------------+-----------------+ <-- min LBFGS
 |    Step    |   lambda    |   F.delta'  |    enthalpy     | <-- min LBFGS
 +------------+-------------+-------------+-----------------+ <-- min LBFGS
 |  previous  |    0.000000 |    0.024314 |    -4325.196755 | <-- min LBFGS
 +------------+-------------+-------------+-----------------+ <-- min LBFGS

 LBFGS: starting iteration         1 with trial guess (lambda=  1.000000)

[...]

                Current cell volume =            17.177040 A**3
                            density =             6.279790 amu/A**3
                                    =            10.427836 g/cm^3

------------------------------------------------------------------------ <-- SCF
SCF loop      Energy           Fermi           Energy gain       Timer   <-- SCF
                               energy          per atom          (sec)   <-- SCF
------------------------------------------------------------------------ <-- SCF
Initial  -4.32516116E+003  0.00000000E+000                        57.26  <-- SCF
      1  -4.32524226E+003  1.25318520E+001   8.10990329E-002      57.98  <-- SCF
      2  -4.32524275E+003  1.25318383E+001   4.89898539E-004      60.16  <-- SCF
      3  -4.32522884E+003  1.26318205E+001  -1.39022891E-002      62.27  <-- SCF
      4  -4.32519908E+003  1.25818094E+001  -2.97636507E-002      64.30  <-- SCF
      5  -4.32519919E+003  1.25815796E+001   1.09370115E-004      66.33  <-- SCF
      6  -4.32519919E+003  1.25809270E+001   1.15870833E-006      68.15  <-- SCF
      7  -4.32519919E+003  1.25811557E+001  -9.86733324E-007      69.95  <-- SCF
------------------------------------------------------------------------ <-- SCF

[...]

 *********** Symmetrised Stress Tensor ***********
 *          Cartesian components (GPa)           *
 *             x             y             z     *
 *  x     -2.974181      0.000000     -0.000000  *
 *  y      0.000000     -2.974181      0.000000  *
 *  z     -0.000000      0.000000     -2.974181  *
 *  Pressure:    2.9742                          *

 +------------+-------------+-------------+-----------------+ <-- min LBFGS
 |    Step    |   lambda    |   F.delta'  |    enthalpy     | <-- min LBFGS
 +------------+-------------+-------------+-----------------+ <-- min LBFGS
 |  previous  |    0.000000 |    0.024314 |    -4325.196755 | <-- min LBFGS
 | trial step |    1.000000 |    0.020248 |    -4325.199215 | <-- min LBFGS
 +------------+-------------+-------------+-----------------+ <-- min LBFGS

 LBFGS: improving iteration         1 with line minimization (lambda=  5.980010)

[...]

 +------------+-------------+-------------+-----------------+ <-- min LBFGS
 |    Step    |   lambda    |   F.delta'  |    enthalpy     | <-- min LBFGS
 +------------+-------------+-------------+-----------------+ <-- min LBFGS
 |  previous  |    0.000000 |    0.024314 |    -4325.196755 | <-- min LBFGS
 | trial step |    1.000000 |    0.020248 |    -4325.199215 | <-- min LBFGS
 |  line step |    5.980010 |   -0.005024 |    -4325.202873 | <-- min LBFGS
 +------------+-------------+-------------+-----------------+ <-- min LBFGS

 LBFGS: finished iteration     1 with enthalpy= -4.32520287E+003 eV

[...]

 LBFGS: improving iteration         2 with quad minimization (lambda=  1.967405)

[...]

 +------------+-------------+-------------+-----------------+ <-- min LBFGS
 |    Step    |   lambda    |   F.delta'  |    enthalpy     | <-- min LBFGS
 +------------+-------------+-------------+-----------------+ <-- min LBFGS
 |  previous  |    0.000000 |    0.005024 |    -4325.202873 | <-- min LBFGS
 | trial step |    1.000000 |    0.006511 |    -4325.203231 | <-- min LBFGS
 |  line step |   -3.380473 |    0.019801 |    -4325.197824 | <-- min LBFGS
 |  quad step |    1.967405 |   -0.004105 |    -4325.203041 | <-- min LBFGS
 +------------+-------------+-------------+-----------------+ <-- min LBFGS

[...]

 +-----------+-----------------+-----------------+------------+-----+ <-- LBFGS
 | Parameter |      value      |    tolerance    |    units   | OK? | <-- LBFGS
 +-----------+-----------------+-----------------+------------+-----+ <-- LBFGS
 |  dE/ion   |   1.910105E-004 |   2.000000E-005 |         eV | No  | <-- LBFGS
 |   Smax    |   1.080123E-001 |   1.000000E-001 |        GPa | No  | <-- LBFGS
 +-----------+-----------------+-----------------+------------+-----+ <-- LBFGS

 Starting LBFGS iteration          4 ...

 +------------+-------------+-------------+-----------------+ <-- min LBFGS
 |    Step    |   lambda    |   F.delta'  |    enthalpy     | <-- min LBFGS
 +------------+-------------+-------------+-----------------+ <-- min LBFGS
 |  previous  |    0.000000 |    0.000749 |    -4325.203232 | <-- min LBFGS
 +------------+-------------+-------------+-----------------+ <-- min LBFGS

 LBFGS: starting iteration         4 with trial guess (lambda=  1.000000)

[...]

 +------------+-------------+-------------+-----------------+ <-- min LBFGS
 |    Step    |   lambda    |   F.delta'  |    enthalpy     | <-- min LBFGS
 +------------+-------------+-------------+-----------------+ <-- min LBFGS
 |  previous  |    0.000000 |    0.000749 |    -4325.203232 | <-- min LBFGS
 | trial step |    1.000000 |   -0.001036 |    -4325.203214 | <-- min LBFGS
 +------------+-------------+-------------+-----------------+ <-- min LBFGS

 LBFGS: improving iteration         4 with line minimization (lambda=  0.419614)

[...]

------------------------------------------------------------------------ <-- SCF
SCF loop      Energy           Fermi           Energy gain       Timer   <-- SCF
                               energy          per atom          (sec)   <-- SCF
------------------------------------------------------------------------ <-- SCF
Initial  -4.32519759E+003  0.00000000E+000                       244.33  <-- SCF
      1  -4.32520383E+003  1.21135095E+001   6.23758233E-003     245.03  <-- SCF
      2  -4.32520383E+003  1.21135095E+001   3.63914719E-006     246.83  <-- SCF
      3  -4.32520366E+003  1.21017080E+001  -1.71867620E-004     248.92  <-- SCF
      4  -4.32520324E+003  1.21075119E+001  -4.23500542E-004     250.98  <-- SCF
      5  -4.32520324E+003  1.21075801E+001   1.49522680E-006     252.77  <-- SCF
      6  -4.32520324E+003  1.21076393E+001   7.50393366E-008     254.60  <-- SCF
------------------------------------------------------------------------ <-- SCF

Final energy, E             =  -4325.197940150     eV
Final free energy (E-TS)    =  -4325.203237772     eV
(energies not corrected for finite basis set)

NB est. 0K energy (E-0.5TS)      =  -4325.200588961     eV

[...]

 +------------+-------------+-------------+-----------------+ <-- min LBFGS
 |    Step    |   lambda    |   F.delta'  |    enthalpy     | <-- min LBFGS
 +------------+-------------+-------------+-----------------+ <-- min LBFGS
 |  previous  |    0.000000 |    0.000749 |    -4325.203232 | <-- min LBFGS
 | trial step |    1.000000 |   -0.001036 |    -4325.203214 | <-- min LBFGS
 |  line step |    0.419614 |   -0.000506 |    -4325.203227 | <-- min LBFGS
 +------------+-------------+-------------+-----------------+ <-- min LBFGS

 LBFGS: finished iteration     4 with enthalpy= -4.32520323E+003 eV

 +-----------+-----------------+-----------------+------------+-----+ <-- LBFGS
 | Parameter |      value      |    tolerance    |    units   | OK? | <-- LBFGS
 +-----------+-----------------+-----------------+------------+-----+ <-- LBFGS
 |  dE/ion   |   4.786458E-006 |   2.000000E-005 |         eV | Yes | <-- LBFGS
 |   Smax    |   7.292764E-002 |   1.000000E-001 |        GPa | Yes | <-- LBFGS
 +-----------+-----------------+-----------------+------------+-----+ <-- LBFGS

 LBFGS: Geometry optimization completed successfully.

 LBFGS: Final Configuration:

                                      Unit Cell
        Real Lattice(A)              Reciprocal Lattice(1/A)
     2.0672225     2.0672225    -0.0000000        1.519716728   1.519716728  -1.519716728
     2.0672225    -0.0000000     2.0672225        1.519716728  -1.519716728   1.519716728
    -0.0000000     2.0672225     2.0672225       -1.519716728   1.519716728   1.519716728

                       Lattice parameters(A)       Cell Angles
                    a =      2.923494          alpha =   60.000000
                    b =      2.923494          beta  =   60.000000
                    c =      2.923494          gamma =   60.000000

                Current cell volume =            17.668175 A**3
                            density =             6.105226 amu/A**3
                                    =            10.137966 g/cm^3

 LBFGS: Final Enthalpy     = -4.32520323E+003 eV
 LBFGS: Final bulk modulus unchanged from initial value

 ******************************** Symmetrised Forces ********************************
 *                           Cartesian components (eV/A)                            *
 *                         x                    y                    z              *
 * Ag              1      0.00000              0.00000              0.00000         *

 *********** Symmetrised Stress Tensor ***********
 *          Cartesian components (GPa)           *
 *             x             y             z     *
 *  x      0.072928     -0.000000      0.000000  *
 *  y     -0.000000      0.072928     -0.000000  *
 *  z      0.000000     -0.000000      0.072928  *
 *  Pressure:   -0.0729                          *

 Pseudo atomic calculation performed for Ag 4s2 4p6 4d10 5s1

 Converged in 37 iterations to a total energy of -4322.0821 eV
Charge spilling parameter for spin component 1 = 0.02%

            Orbital Populations
     Ion    Atom   Orbital             Charge
     Ag     1      S                    1.998
     Ag     1      Px                   1.999
     Ag     1      Py                   1.998
     Ag     1      Pz                   1.998
     Ag     1      Dzz                  1.966
     Ag     1      Dzy                  1.912
     Ag     1      Dzx                  1.963
     Ag     1      Dxx-yy               1.961
     Ag     1      Dxy                  1.953
     Ag     1      S                    0.488
     Ag     1      Px                   0.394
     Ag     1      Py                   0.179
     Ag     1      Pz                   0.192
                           Total:      19.000

     Atomic Populations (Mulliken)
Species          Ion     s      p      d      f     Total  Charge (e)
  Ag              1     2.49   6.76   9.75   0.00  19.00     0.00

                 Bond                   Population      Length (A)

Writing analysis data to Ag.castep_bin

Writing model to Ag.check

 A BibTeX formatted list of references used in this run has been written to
 Ag.bib

Initialisation time =      9.41 s
Calculation time    =    257.51 s
Finalisation time   =      0.82 s
Total time          =    267.74 s