 Run started: Mon, 29 Jul 2019 16:02:30 +0100
 Info: number of up-spin electrons is not equal to the
       number of down-spins but spin_polarized=false
     - consider setting spin_polarized=true.

 Atomic calculation performed for Co: 1s2 2s2 2p6 3s2 3p6 3d7 4s2

 Exceeded max iterations: converged to 0.000007386 eV
 The ae energy is -37921.967 eV

   | Pseudopotential Report - Date of generation 29-07-2019   |
   | Element: Co Ionic charge:  9.00 Level of theory: RSCAN   |
   | Atomic Solver: Koelling-Harmon                           |
   |               Reference Electronic Structure             |
   |         Orbital         Occupation         Energy        |
   |            3d              7.000           -0.310        |
   |            4s              2.000           -0.209        |
   |                 Pseudopotential Definition               |
   |        Beta     l      e      Rc     scheme   norm       |
   |          1      0   -0.209   2.409     qc      0         |
   |          2      0    0.250   2.409     qc      0         |
   |          3      1    0.000   2.409     qc      0         |
   |          4      1    0.250   2.409     qc      0         |
   |          5      2   -0.310   2.005     qc      0         |
   |          6      2    0.250   2.005     qc      0         |
   |         loc     3    0.000   2.409     pn      0         |
   | Augmentation charge Rinner = 1.004                       |
   | Partial core correction Rc = 1.004                       |
   | "3|2.4|2.4|1.0|8|9|10|40:41:32U2U2(qc=5.5)"              |
   |      Author: Chris J. Pickard, Cambridge University      |

 Pseudo atomic calculation performed for Co 3d7 4s2

 Converged in 39 iterations to a total energy of -1106.0491 eV
 Calculation not parallelised.

 ************************************ Title ************************************

 ***************************** General Parameters ******************************

 output verbosity                               : normal  (1)
 write checkpoint data to                       : Co.check
 type of calculation                            : geometry optimization
 stress calculation                             : off
 density difference calculation                 : off
 electron localisation func (ELF) calculation   : off
 Hirshfeld analysis                             : off
 molecular orbital projected DOS                : off
 deltaSCF calculation                           : off
 unlimited duration calculation
 timing information                             : on
 write extra output files                       : on
 write final potential to formatted file        : off
 write final density to formatted file          : off
 write BibTeX reference list                    : on
 write OTFG pseudopotential files               : on
 write electrostatic potential file             : on
 write bands file                               : on
 checkpoint writing                             : both castep_bin and check files

 output         length unit                     : A
 output           mass unit                     : amu
 output           time unit                     : ps
 output         charge unit                     : e
 output           spin unit                     : hbar/2
 output         energy unit                     : eV
 output          force unit                     : eV/A
 output       velocity unit                     : A/ps
 output       pressure unit                     : GPa
 output     inv_length unit                     : 1/A
 output      frequency unit                     : cm-1
 output force constant unit                     : eV/A**2
 output         volume unit                     : A**3
 output   IR intensity unit                     : (D/A)**2/amu
 output         dipole unit                     : D
 output         efield unit                     : eV/A/e
 output        entropy unit                     : J/mol/K

 wavefunctions paging                           : none
 random number generator seed                   : randomised (160253661)
 data distribution                              : optimal for this architecture
 optimization strategy                          : maximize speed(+++)

 *********************** Exchange-Correlation Parameters ***********************

 using functional                               : RSCAN
 relativistic treatment                         : Koelling-Harmon
 DFT+D: Semi-empirical dispersion correction    : off

 ************************* Pseudopotential Parameters **************************

 pseudopotential representation                 : reciprocal space
 <beta|phi> representation                      : reciprocal space
 spin-orbit coupling                            : off

 **************************** Basis Set Parameters *****************************

 basis set accuracy                             : EXTREME
 plane wave basis set cut-off                   :   435.3822   eV
 size of standard grid                          :     1.7500
 size of   fine   grid                          :     4.0000
 size of   fine   gmax                          :    42.7596   1/A
 finite basis set correction                    : automatic
 number of sample energies                      :          3
           sample  spacing                      :     5.0000   eV

 **************************** Electronic Parameters ****************************

 number of  electrons                           :  9.000
 net charge of system                           :  0.000
 treating system as non-spin-polarized
 number of bands                                :          9

 ********************* Electronic Minimization Parameters **********************

 Method: Treating system as metallic with density mixing treatment of electrons,
         and number of  SD  steps               :          1
         and number of  CG  steps               :          4

 total energy / atom convergence tol.           : 0.1000E-04   eV
 eigen-energy convergence tolerance             : 0.1000E-05   eV
 max force / atom convergence tol.              : ignored
 convergence tolerance window                   :          3   cycles
 max. number of SCF cycles                      :         30
 number of fixed-spin iterations                :         10
 smearing scheme                                : Gaussian
 smearing width                                 : 0.2000       eV
 Fermi energy convergence tolerance             : 0.2721E-13   eV
 periodic dipole correction                     : NONE

 ************************** Density Mixing Parameters **************************

 density-mixing scheme                          : Broyden
 max. length of mixing history                  :         20
 charge density mixing amplitude                : 0.8000

 *********************** Population Analysis Parameters ************************

 Population analysis with cutoff                :  3.000       A
 Population analysis output                     : summary and pdos components

 ********************** Geometry Optimization Parameters ***********************

 optimization method                            : LBFGS
 max. no. of LBFGS updates                      : unbounded
 variable cell method                           : fixed basis quality
 max. number of steps                           :         30
 estimated bulk modulus                         :  500.0       GPa
 estimated <frequency>                          :  1668.       cm-1
 geom line minimiser                            : on
 with line minimiser tolerance                  :     0.4000
 total energy convergence tolerance             : 0.2000E-04   eV/atom
        max ionic |force| tolerance             : 0.5000E-01   eV/A
 max ionic |displacement| tolerance             : 0.1000E-02   A
   max |stress component| tolerance             : 0.1000       GPa
 convergence tolerance window                   :          2   steps
 backup results every                           :          5   steps
 write geom trajectory file                     : on

                                      Unit Cell
        Real Lattice(A)                      Reciprocal Lattice(1/A)
     1.7829000     1.7829000     0.0000000        1.762068907   1.762068907  -1.762068907
     1.7829000     0.0000000     1.7829000        1.762068907  -1.762068907   1.762068907
     0.0000000     1.7829000     1.7829000       -1.762068907   1.762068907   1.762068907

                       Lattice parameters(A)       Cell Angles
                    a =      2.521401          alpha =   60.000000
                    b =      2.521401          beta  =   60.000000
                    c =      2.521401          gamma =   60.000000

                       Current cell volume =            11.334724       A**3
                                   density =             5.199350   AMU/A**3
                                           =             8.633724     g/cm^3

                                     Cell Contents
                         Total number of ions in cell =    1
                      Total number of species in cell =    1
                        Max number of any one species =    1

            x  Element    Atom        Fractional coordinates of atoms  x
            x            Number           u          v          w      x
            x  Co           1         0.000000   0.000000   0.000000   x

                         No user defined ionic velocities

                                   Details of Species

                               Mass of species in AMU
                                    Co   58.9332000

                          Electric Quadrupole Moment (Barn)
                                    Co    0.4200000 Isotope 59

                          Files used for pseudopotentials:
                                    Co 3|2.4|2.4|1.0|8|9|10|40:41:32U2U2(qc=5.5)

                              k-Points For BZ Sampling
                       MP grid size for SCF calculation is 35 35 35
                            with an offset of   0.000  0.000  0.000
                       Number of kpoints used =          1140

                               Symmetry and Constraints

                      Maximum deviation from symmetry =  0.00000         ANG

                      Number of symmetry operations   =          48
                      Number of ionic constraints     =           3
                      Point group of crystal =    32: Oh, m-3m, 4/m -3 2/m
                      Space group of crystal =   225: Fm-3m, -F 4 2 3

             Set iprint > 1 for details on symmetry rotations/translations

                         Centre of mass is constrained
             Set iprint > 1 for details of linear ionic constraints

                         Number of cell constraints= 5
                         Cell constraints are:  1 1 1 0 0 0

                         External pressure/stress (GPa)
                          0.00000   0.00000   0.00000
                                    0.00000   0.00000
                                              0.00000

Final energy, E             =  -1114.916475247     eV
Final free energy (E-TS)    =  -1114.965911750     eV
(energies not corrected for finite basis set)

NB est. 0K energy (E-0.5TS)      =  -1114.941193498     eV

Calculating total energy with cut-off of  430.382 eV.
------------------------------------------------------------------------ <-- SCF
SCF loop      Energy           Fermi           Energy gain       Timer   <-- SCF
                               energy          per atom          (sec)   <-- SCF
------------------------------------------------------------------------ <-- SCF
Initial  -1.11491651E+003  0.00000000E+000                       215.24  <-- SCF
      1  -1.11496595E+003  2.31537248E+000   4.94391251E-002     229.77  <-- SCF
      2  -1.11496595E+003  2.31537248E+000   2.92729669E-010     240.77  <-- SCF
      3  -1.11496595E+003  2.31513309E+000   2.35208483E-008     251.75  <-- SCF
      4  -1.11496595E+003  2.31569743E+000   3.14926080E-008     262.76  <-- SCF
------------------------------------------------------------------------ <-- SCF

[...]

Calculating total energy with cut-off of  435.382 eV.
------------------------------------------------------------------------ <-- SCF
SCF loop      Energy           Fermi           Energy gain       Timer   <-- SCF
                               energy          per atom          (sec)   <-- SCF
------------------------------------------------------------------------ <-- SCF
Initial  -1.11491656E+003  0.00000000E+000                       265.32  <-- SCF
      1  -1.11496597E+003  2.31405433E+000   4.94140168E-002     280.66  <-- SCF
      2  -1.11496597E+003  2.31405433E+000   1.52784006E-009     292.67  <-- SCF
      3  -1.11496597E+003  2.31738627E+000   5.75013878E-007     304.69  <-- SCF
      4  -1.11496598E+003  2.31003087E+000   4.89176761E-006     316.71  <-- SCF
------------------------------------------------------------------------ <-- SCF

[...]

 For future reference: finite basis dEtot/dlog(Ecut) =      -0.002750eV
 Total energy corrected for finite basis set =   -1114.965976 eV

 *********** Symmetrised Stress Tensor ***********
 *          Cartesian components (GPa)           *
 *             x             y             z     *
 *  x     26.444304     -0.000000      0.000000  *
 *  y     -0.000000     26.444304      0.000000  *
 *  z      0.000000      0.000000     26.444304  *
 *  Pressure:  -26.4443                          *
 LBFGS: finished iteration     0 with enthalpy= -1.11496598E+003 eV

 +-----------+-----------------+-----------------+------------+-----+ <-- LBFGS
 | Parameter |      value      |    tolerance    |    units   | OK? | <-- LBFGS
 +-----------+-----------------+-----------------+------------+-----+ <-- LBFGS
 |  dE/ion   |   0.000000E+000 |   2.000000E-005 |         eV | No  | <-- LBFGS
 |   Smax    |   2.644430E+001 |   1.000000E-001 |        GPa | No  | <-- LBFGS
 +-----------+-----------------+-----------------+------------+-----+ <-- LBFGS

 Starting LBFGS iteration          1 ...

 +------------+-------------+-------------+-----------------+ <-- min LBFGS
 |    Step    |   lambda    |   F.delta'  |    enthalpy     | <-- min LBFGS
 +------------+-------------+-------------+-----------------+ <-- min LBFGS
 |  previous  |    0.000000 |    0.119081 |    -1114.965976 | <-- min LBFGS
 +------------+-------------+-------------+-----------------+ <-- min LBFGS

 LBFGS: starting iteration         1 with trial guess (lambda=  1.000000)

[...]

                Current cell volume =            10.745753 A**3
                            density =             5.484325 amu/A**3
                                    =             9.106936 g/cm^3

------------------------------------------------------------------------ <-- SCF
SCF loop      Energy           Fermi           Energy gain       Timer   <-- SCF
                               energy          per atom          (sec)   <-- SCF
------------------------------------------------------------------------ <-- SCF
Initial  -1.11459508E+003  0.00000000E+000                       325.08  <-- SCF
      1  -1.11597514E+003  4.82086298E+000   1.38005821E+000     340.43  <-- SCF
      2  -1.11597537E+003  4.82085989E+000   2.30035649E-004     356.65  <-- SCF
      3  -1.11732576E+003 -6.71203267E-001   1.35039051E+000     372.72  <-- SCF
      4  -1.11478374E+003  2.60447702E+000  -2.54202412E+000     388.88  <-- SCF
      5  -1.11504624E+003  2.83818043E+000   2.62499693E-001     404.96  <-- SCF
      6  -1.11504873E+003  2.74685780E+000   2.48984758E-003     420.82  <-- SCF
      7  -1.11505085E+003  2.70015185E+000   2.11822051E-003     436.88  <-- SCF
      8  -1.11505095E+003  2.70420055E+000   1.03877334E-004     451.68  <-- SCF
      9  -1.11505098E+003  2.70926106E+000   3.36627428E-005     462.52  <-- SCF
     10  -1.11505099E+003  2.70923044E+000   1.07047746E-005     473.32  <-- SCF
     11  -1.11505099E+003  2.70953070E+000   1.49066880E-007     484.08  <-- SCF
     12  -1.11505099E+003  2.70936587E+000   1.06627846E-008     494.86  <-- SCF
------------------------------------------------------------------------ <-- SCF

[...]

 *********** Symmetrised Stress Tensor ***********
 *          Cartesian components (GPa)           *
 *             x             y             z     *
 *  x     18.415205      0.000000     -0.000000  *
 *  y      0.000000     18.415205      0.000000  *
 *  z     -0.000000      0.000000     18.415205  *
 *  Pressure:  -18.4152                          *

 +------------+-------------+-------------+-----------------+ <-- min LBFGS
 |    Step    |   lambda    |   F.delta'  |    enthalpy     | <-- min LBFGS
 +------------+-------------+-------------+-----------------+ <-- min LBFGS
 |  previous  |    0.000000 |    0.119081 |    -1114.965976 | <-- min LBFGS
 | trial step |    1.000000 |    0.080027 |    -1115.050995 | <-- min LBFGS
 +------------+-------------+-------------+-----------------+ <-- min LBFGS

 LBFGS: improving iteration         1 with line minimization (lambda=  3.049151)

[...]

 +------------+-------------+-------------+-----------------+ <-- min LBFGS
 |    Step    |   lambda    |   F.delta'  |    enthalpy     | <-- min LBFGS
 +------------+-------------+-------------+-----------------+ <-- min LBFGS
 |  previous  |    0.000000 |    0.119081 |    -1114.965976 | <-- min LBFGS
 | trial step |    1.000000 |    0.080027 |    -1115.050995 | <-- min LBFGS
 |  line step |    3.049151 |   -0.042277 |    -1115.090658 | <-- min LBFGS
 +------------+-------------+-------------+-----------------+ <-- min LBFGS

 LBFGS: finished iteration     1 with enthalpy= -1.11509066E+003 eV

[...]

 +-----------+-----------------+-----------------+------------+-----+ <-- LBFGS
 | Parameter |      value      |    tolerance    |    units   | OK? | <-- LBFGS
 +-----------+-----------------+-----------------+------------+-----+ <-- LBFGS
 |  dE/ion   |   9.050594E-004 |   2.000000E-005 |         eV | No  | <-- LBFGS
 |   Smax    |   4.727191E-001 |   1.000000E-001 |        GPa | No  | <-- LBFGS
 +-----------+-----------------+-----------------+------------+-----+ <-- LBFGS

[...]

 LBFGS: improving iteration         4 with line minimization (lambda=  0.542385)

[...]

 +------------+-------------+-------------+-----------------+ <-- min LBFGS
 |    Step    |   lambda    |   F.delta'  |    enthalpy     | <-- min LBFGS
 +------------+-------------+-------------+-----------------+ <-- min LBFGS
 |  previous  |    0.000000 |    0.001951 |    -1115.101172 | <-- min LBFGS
 | trial step |    1.000000 |   -0.001646 |    -1115.101163 | <-- min LBFGS
 |  line step |    0.542385 |   -0.000667 |    -1115.101174 | <-- min LBFGS
 +------------+-------------+-------------+-----------------+ <-- min LBFGS

[...]

 +-----------+-----------------+-----------------+------------+-----+ <-- LBFGS
 | Parameter |      value      |    tolerance    |    units   | OK? | <-- LBFGS
 +-----------+-----------------+-----------------+------------+-----+ <-- LBFGS
 |  dE/ion   |   1.692767E-006 |   2.000000E-005 |         eV | Yes | <-- LBFGS
 |   Smax    |   1.618465E-001 |   1.000000E-001 |        GPa | No  | <-- LBFGS
 +-----------+-----------------+-----------------+------------+-----+ <-- LBFGS

 Starting LBFGS iteration          5 ...

Writing analysis data to Co.castep_bin

Writing model to Co.check

 +------------+-------------+-------------+-----------------+ <-- min LBFGS
 |    Step    |   lambda    |   F.delta'  |    enthalpy     | <-- min LBFGS
 +------------+-------------+-------------+-----------------+ <-- min LBFGS
 |  previous  |    0.000000 |    0.000667 |    -1115.101174 | <-- min LBFGS
 +------------+-------------+-------------+-----------------+ <-- min LBFGS

 LBFGS: starting iteration         5 with trial guess (lambda=  1.000000)

[...]

------------------------------------------------------------------------ <-- SCF
SCF loop      Energy           Fermi           Energy gain       Timer   <-- SCF
                               energy          per atom          (sec)   <-- SCF
------------------------------------------------------------------------ <-- SCF
Initial  -1.11506134E+003  0.00000000E+000                      1171.21  <-- SCF
      1  -1.11510120E+003  3.32263678E+000   3.98552145E-002    1183.74  <-- SCF
      2  -1.11510120E+003  3.32263678E+000   2.92959754E-008    1194.36  <-- SCF
      3  -1.11510122E+003  3.34764630E+000   2.28461454E-005    1209.33  <-- SCF
      4  -1.11510114E+003  3.33333778E+000  -7.94092384E-005    1222.72  <-- SCF
      5  -1.11510118E+003  3.33301416E+000   3.63514952E-005    1233.32  <-- SCF
      6  -1.11510118E+003  3.33408815E+000  -1.52589497E-007    1243.91  <-- SCF
      7  -1.11510118E+003  3.33269342E+000  -1.14486690E-007    1254.49  <-- SCF
------------------------------------------------------------------------ <-- SCF

Final energy, E             =  -1115.061308119     eV
Final free energy (E-TS)    =  -1115.101177146     eV
(energies not corrected for finite basis set)

NB est. 0K energy (E-0.5TS)      =  -1115.081242632     eV

[...]

 +------------+-------------+-------------+-----------------+ <-- min LBFGS
 |    Step    |   lambda    |   F.delta'  |    enthalpy     | <-- min LBFGS
 +------------+-------------+-------------+-----------------+ <-- min LBFGS
 |  previous  |    0.000000 |    0.000667 |    -1115.101174 | <-- min LBFGS
 | trial step |    1.000000 |    0.000298 |    -1115.101177 | <-- min LBFGS
 +------------+-------------+-------------+-----------------+ <-- min LBFGS

 LBFGS: finished iteration     5 with enthalpy= -1.11510118E+003 eV

 +-----------+-----------------+-----------------+------------+-----+ <-- LBFGS
 | Parameter |      value      |    tolerance    |    units   | OK? | <-- LBFGS
 +-----------+-----------------+-----------------+------------+-----+ <-- LBFGS
 |  dE/ion   |   3.436100E-006 |   2.000000E-005 |         eV | Yes | <-- LBFGS
 |   Smax    |   7.232448E-002 |   1.000000E-001 |        GPa | Yes | <-- LBFGS
 +-----------+-----------------+-----------------+------------+-----+ <-- LBFGS

 LBFGS: Geometry optimization completed successfully.

 LBFGS: Final Configuration:

                                      Unit Cell
        Real Lattice(A)              Reciprocal Lattice(1/A)
     1.7062549     1.7062549     0.0000000        1.841221218   1.841221218  -1.841221218
     1.7062549    -0.0000000     1.7062549        1.841221218  -1.841221218   1.841221218
    -0.0000000     1.7062549     1.7062549       -1.841221218   1.841221218   1.841221218

                       Lattice parameters(A)       Cell Angles
                    a =      2.413009          alpha =   60.000000
                    b =      2.413009          beta  =   60.000000
                    c =      2.413009          gamma =   60.000000

                Current cell volume =             9.934859 A**3
                            density =             5.931961 amu/A**3
                                    =             9.850254 g/cm^3

 LBFGS: Final Enthalpy     = -1.11510118E+003 eV
 LBFGS: Final bulk modulus unchanged from initial value

 ******************************** Symmetrised Forces ********************************
 *                           Cartesian components (eV/A)                            *
 *                         x                    y                    z              *
 * Co              1      0.00000              0.00000              0.00000         *

 *********** Symmetrised Stress Tensor ***********
 *          Cartesian components (GPa)           *
 *             x             y             z     *
 *  x     -0.072324     -0.000000      0.000000  *
 *  y     -0.000000     -0.072324      0.000000  *
 *  z      0.000000      0.000000     -0.072324  *
 *  Pressure:    0.0723                          *

 Pseudo atomic calculation performed for Co 3d7 4s2

 Converged in 39 iterations to a total energy of -1106.0491 eV
Charge spilling parameter for spin component 1 = 0.16%

            Orbital Populations
     Ion    Atom   Orbital             Charge
     Co     1      Dzz                  1.644
     Co     1      Dzy                  1.457
     Co     1      Dzx                  1.477
     Co     1      Dxx-yy               1.633
     Co     1      Dxy                  1.464
     Co     1      S                    0.761
     Co     1      Px                   0.170
     Co     1      Py                   0.203
     Co     1      Pz                   0.190
                           Total:       9.000

     Atomic Populations (Mulliken)
Species          Ion     s      p      d      f     Total  Charge (e)
  Co              1     0.76   0.56   7.67   0.00   9.00     0.00

                 Bond                   Population      Length (A)

Writing analysis data to Co.castep_bin

Writing model to Co.check

 A BibTeX formatted list of references used in this run has been written to
 Co.bib

Initialisation time =     54.23 s
Calculation time    =   1208.75 s
Finalisation time   =      0.75 s
Total time          =   1263.73 s