 Run started: Tue, 30 Jul 2019 14:14:01 +0100

 Atomic calculation performed for Cu: 1s2 2s2 2p6 3s2 3p6 3d10 4s1

 Converged in 149 iterations to an ae energy of -45030.712 eV

   | Pseudopotential Report - Date of generation 30-07-2019   |
   | Element: Cu Ionic charge: 11.00 Level of theory: PBE     |
   | Atomic Solver: Koelling-Harmon                           |
   |               Reference Electronic Structure             |
   |         Orbital         Occupation         Energy        |
   |            3d             10.000           -0.185        |
   |            4s              1.000           -0.169        |
   |                 Pseudopotential Definition               |
   |        Beta     l      e      Rc     scheme   norm       |
   |          1      0   -0.169   1.996     qc      0         |
   |          2      0    0.250   1.996     qc      0         |
   |          3      1    0.000   1.996     qc      0         |
   |          4      1    0.250   1.996     qc      0         |
   |          5      2   -0.185   1.996     qc      0         |
   |          6      2    0.250   1.996     qc      0         |
   |         loc     3    0.000   2.206     pn      0         |
   | Augmentation charge Rinner = 0.999                       |
   | Partial core correction Rc = 0.999                       |
   | "3|2.2|2.0|1.0|10|12|13|40:41:32(qc=6)"                  |
   |      Author: Chris J. Pickard, Cambridge University      |

 Pseudo atomic calculation performed for Cu 3d10 4s1

 Converged in 46 iterations to a total energy of -1676.8993 eV
 Calculation not parallelised.

 ************************************ Title ************************************

 ***************************** General Parameters ******************************

 output verbosity                               : normal  (1)
 write checkpoint data to                       : Cu.check
 type of calculation                            : geometry optimization
 stress calculation                             : off
 density difference calculation                 : off
 electron localisation func (ELF) calculation   : off
 Hirshfeld analysis                             : off
 molecular orbital projected DOS                : off
 deltaSCF calculation                           : off
 unlimited duration calculation
 timing information                             : on
 write extra output files                       : on
 write final potential to formatted file        : off
 write final density to formatted file          : off
 write BibTeX reference list                    : on
 write OTFG pseudopotential files               : on
 write electrostatic potential file             : on
 write bands file                               : on
 checkpoint writing                             : both castep_bin and check files

 output         length unit                     : A
 output           mass unit                     : amu
 output           time unit                     : ps
 output         charge unit                     : e
 output           spin unit                     : hbar/2
 output         energy unit                     : eV
 output          force unit                     : eV/A
 output       velocity unit                     : A/ps
 output       pressure unit                     : GPa
 output     inv_length unit                     : 1/A
 output      frequency unit                     : cm-1
 output force constant unit                     : eV/A**2
 output         volume unit                     : A**3
 output   IR intensity unit                     : (D/A)**2/amu
 output         dipole unit                     : D
 output         efield unit                     : eV/A/e
 output        entropy unit                     : J/mol/K

 wavefunctions paging                           : none
 random number generator seed                   : randomised (141401447)
 data distribution                              : optimal for this architecture
 optimization strategy                          : maximize speed(+++)

 *********************** Exchange-Correlation Parameters ***********************

 using functional                               : Perdew Burke Ernzerhof
 relativistic treatment                         : Koelling-Harmon
 DFT+D: Semi-empirical dispersion correction    : off

 ************************* Pseudopotential Parameters **************************

 pseudopotential representation                 : reciprocal space
 <beta|phi> representation                      : reciprocal space
 spin-orbit coupling                            : off

 **************************** Basis Set Parameters *****************************

 basis set accuracy                             : EXTREME
 plane wave basis set cut-off                   :   565.9968   eV
 size of standard grid                          :     1.7500
 size of   fine   grid                          :     4.0000
 size of   fine   gmax                          :    48.7535   1/A
 finite basis set correction                    : automatic
 number of sample energies                      :          3
           sample  spacing                      :     5.0000   eV

 **************************** Electronic Parameters ****************************

 number of  electrons                           :  11.00
 net charge of system                           :  0.000
 net spin   of system                           :  1.000
 number of  up  spins                           :  6.000
 number of down spins                           :  5.000
 treating system as spin-polarized
 number of bands                                :         10

 ********************* Electronic Minimization Parameters **********************

 Method: Treating system as metallic with density mixing treatment of electrons,
         and number of  SD  steps               :          1
         and number of  CG  steps               :          4

 total energy / atom convergence tol.           : 0.1000E-04   eV
 eigen-energy convergence tolerance             : 0.1000E-05   eV
 max force / atom convergence tol.              : ignored
 convergence tolerance window                   :          3   cycles
 max. number of SCF cycles                      :         30
 number of fixed-spin iterations                :         10
 smearing scheme                                : Gaussian
 smearing width                                 : 0.2000       eV
 Fermi energy convergence tolerance             : 0.2721E-13   eV
 periodic dipole correction                     : NONE

 ************************** Density Mixing Parameters **************************

 density-mixing scheme                          : Broyden
 max. length of mixing history                  :         20
 charge density mixing amplitude                : 0.8000
   spin density mixing amplitude                :  2.000

 *********************** Population Analysis Parameters ************************

 Population analysis with cutoff                :  3.000       A
 Population analysis output                     : summary and pdos components

 ********************** Geometry Optimization Parameters ***********************

 optimization method                            : LBFGS
 max. no. of LBFGS updates                      : unbounded
 variable cell method                           : fixed basis quality
 max. number of steps                           :         30
 estimated bulk modulus                         :  500.0       GPa
 estimated <frequency>                          :  1668.       cm-1
 geom line minimiser                            : on
 with line minimiser tolerance                  :     0.4000
  with spin fully able to relax for all steps
 total energy convergence tolerance             : 0.2000E-04   eV/atom
        max ionic |force| tolerance             : 0.5000E-01   eV/A
 max ionic |displacement| tolerance             : 0.1000E-02   A
   max |stress component| tolerance             : 0.1000       GPa
 convergence tolerance window                   :          2   steps
 backup results every                           :          5   steps
 write geom trajectory file                     : on

                                      Unit Cell
        Real Lattice(A)                      Reciprocal Lattice(1/A)
     1.8065000     1.8065000     0.0000000        1.739049352   1.739049352  -1.739049352
     1.8065000     0.0000000     1.8065000        1.739049352  -1.739049352   1.739049352
     0.0000000     1.8065000     1.8065000       -1.739049352   1.739049352   1.739049352

                       Lattice parameters(A)       Cell Angles
                    a =      2.554777          alpha =   60.000000
                    b =      2.554777          beta  =   60.000000
                    c =      2.554777          gamma =   60.000000

                       Current cell volume =            11.790817       A**3
                                   density =             5.389448   AMU/A**3
                                           =             8.949390     g/cm^3

                                     Cell Contents
                         Total number of ions in cell =    1
                      Total number of species in cell =    1
                        Max number of any one species =    1

            x  Element    Atom        Fractional coordinates of atoms  x
            x            Number           u          v          w      x
            x  Cu           1         0.000000   0.000000   0.000000   x

                         No user defined ionic velocities

                                   Details of Species

                               Mass of species in AMU
                                    Cu   63.5460000

                          Electric Quadrupole Moment (Barn)
                                    Cu   -0.2200000 Isotope 63

                          Files used for pseudopotentials:
                                    Cu 3|2.2|2.0|1.0|10|12|13|40:41:32(qc=6)

                              k-Points For BZ Sampling
                       MP grid size for SCF calculation is  5  5  5
                            with an offset of   0.000  0.000  0.000
                       Number of kpoints used =            10

                               Symmetry and Constraints

                      Maximum deviation from symmetry =  0.00000         ANG

                      Number of symmetry operations   =          48
                      Number of ionic constraints     =           3
                      Point group of crystal =    32: Oh, m-3m, 4/m -3 2/m
                      Space group of crystal =   225: Fm-3m, -F 4 2 3

             Set iprint > 1 for details on symmetry rotations/translations

                         Centre of mass is constrained
             Set iprint > 1 for details of linear ionic constraints

                         Number of cell constraints= 5
                         Cell constraints are:  1 1 1 0 0 0

                         External pressure/stress (GPa)
                          0.00000   0.00000   0.00000
                                    0.00000   0.00000
                                              0.00000

Integrated Spin Density     =    0.400711E-04 hbar/2
Integrated |Spin Density|   =    0.516573E-04 hbar/2

Final energy, E             =  -1681.026462785     eV
Final free energy (E-TS)    =  -1681.031764409     eV
(energies not corrected for finite basis set)

NB est. 0K energy (E-0.5TS)      =  -1681.029113597     eV

Calculating total energy with cut-off of  560.997 eV.
------------------------------------------------------------------------ <-- SCF
SCF loop      Energy           Fermi           Energy gain       Timer   <-- SCF
                               energy          per atom          (sec)   <-- SCF
------------------------------------------------------------------------ <-- SCF
Initial  -1.68102646E+003  0.00000000E+000                        33.29  <-- SCF
      1  -1.68103177E+003  4.08431000E+000   5.30625930E-003      33.71  <-- SCF
      2  -1.68103177E+003  4.08431000E+000   4.95358925E-010      34.83  <-- SCF
      3  -1.68103177E+003  4.08430142E+000   1.52358639E-009      35.94  <-- SCF
      4  -1.68103177E+003  4.08431850E+000   3.70842474E-010      37.00  <-- SCF
------------------------------------------------------------------------ <-- SCF

[...]

Calculating total energy with cut-off of  565.997 eV.
------------------------------------------------------------------------ <-- SCF
SCF loop      Energy           Fermi           Energy gain       Timer   <-- SCF
                               energy          per atom          (sec)   <-- SCF
------------------------------------------------------------------------ <-- SCF
Initial  -1.68102647E+003  0.00000000E+000                        38.45  <-- SCF
      1  -1.68103178E+003  4.08426333E+000   5.30845424E-003      38.87  <-- SCF
      2  -1.68103178E+003  4.08426333E+000   7.90795474E-010      39.91  <-- SCF
      3  -1.68103178E+003  4.08437301E+000   1.26507941E-008      40.95  <-- SCF
      4  -1.68103178E+003  4.08408911E+000   1.02704997E-007      41.99  <-- SCF
------------------------------------------------------------------------ <-- SCF

[...]

 For future reference: finite basis dEtot/dlog(Ecut) =      -0.000660eV
 Total energy corrected for finite basis set =   -1681.031776 eV

 *********** Symmetrised Stress Tensor ***********
 *          Cartesian components (GPa)           *
 *             x             y             z     *
 *  x     -1.513970     -0.000000     -0.000000  *
 *  y     -0.000000     -1.513970      0.000000  *
 *  z     -0.000000      0.000000     -1.513970  *
 *  Pressure:    1.5140                          *
 LBFGS: finished iteration     0 with enthalpy= -1.68103178E+003 eV

 +-----------+-----------------+-----------------+------------+-----+ <-- LBFGS
 | Parameter |      value      |    tolerance    |    units   | OK? | <-- LBFGS
 +-----------+-----------------+-----------------+------------+-----+ <-- LBFGS
 |  dE/ion   |   0.000000E+000 |   2.000000E-005 |         eV | No  | <-- LBFGS
 |   Smax    |   1.513970E+000 |   1.000000E-001 |        GPa | No  | <-- LBFGS
 +-----------+-----------------+-----------------+------------+-----+ <-- LBFGS

 Starting LBFGS iteration          1 ...

 +------------+-------------+-------------+-----------------+ <-- min LBFGS
 |    Step    |   lambda    |   F.delta'  |    enthalpy     | <-- min LBFGS
 +------------+-------------+-------------+-----------------+ <-- min LBFGS
 |  previous  |    0.000000 |    0.007092 |    -1681.031776 | <-- min LBFGS
 +------------+-------------+-------------+-----------------+ <-- min LBFGS

 LBFGS: starting iteration         1 with trial guess (lambda=  1.000000)

[...]

                Current cell volume =            11.826555 A**3
                            density =             5.373162 amu/A**3
                                    =             8.922346 g/cm^3

------------------------------------------------------------------------ <-- SCF
SCF loop      Energy           Fermi           Energy gain       Timer   <-- SCF
                               energy          per atom          (sec)   <-- SCF
------------------------------------------------------------------------ <-- SCF
Initial  -1.68102472E+003  0.00000000E+000                        47.33  <-- SCF
      1  -1.68103726E+003  4.01590660E+000   1.25375338E-002      47.88  <-- SCF
      2  -1.68103726E+003  4.01590653E+000   1.59451494E-006      48.93  <-- SCF
      3  -1.68105018E+003  4.14616174E+000   1.29161507E-002      50.16  <-- SCF
      4  -1.68103178E+003  4.06180698E+000  -1.83968070E-002      51.38  <-- SCF
      5  -1.68103196E+003  4.06036396E+000   1.80922218E-004      52.50  <-- SCF
      6  -1.68103196E+003  4.05864292E+000   4.93221071E-007      53.54  <-- SCF
      7  -1.68103196E+003  4.05950793E+000  -1.63964326E-006      54.58  <-- SCF
------------------------------------------------------------------------ <-- SCF

[...]

 *********** Symmetrised Stress Tensor ***********
 *          Cartesian components (GPa)           *
 *             x             y             z     *
 *  x     -0.608557      0.000000      0.000000  *
 *  y      0.000000     -0.608557     -0.000000  *
 *  z      0.000000     -0.000000     -0.608557  *
 *  Pressure:    0.6086                          *

 +------------+-------------+-------------+-----------------+ <-- min LBFGS
 |    Step    |   lambda    |   F.delta'  |    enthalpy     | <-- min LBFGS
 +------------+-------------+-------------+-----------------+ <-- min LBFGS
 |  previous  |    0.000000 |    0.007092 |    -1681.031776 | <-- min LBFGS
 | trial step |    1.000000 |    0.002856 |    -1681.031963 | <-- min LBFGS
 +------------+-------------+-------------+-----------------+ <-- min LBFGS

 LBFGS: improving iteration         1 with line minimization (lambda=  1.674406)

[...]

 +------------+-------------+-------------+-----------------+ <-- min LBFGS
 |    Step    |   lambda    |   F.delta'  |    enthalpy     | <-- min LBFGS
 +------------+-------------+-------------+-----------------+ <-- min LBFGS
 |  previous  |    0.000000 |    0.007092 |    -1681.031776 | <-- min LBFGS
 | trial step |    1.000000 |    0.002856 |    -1681.031963 | <-- min LBFGS
 |  line step |    1.674406 |    0.001482 |    -1681.032034 | <-- min LBFGS
 +------------+-------------+-------------+-----------------+ <-- min LBFGS

 LBFGS: improving iteration         1 with quad minimization (lambda=  2.401534)

[...]

 +------------+-------------+-------------+-----------------+ <-- min LBFGS
 |    Step    |   lambda    |   F.delta'  |    enthalpy     | <-- min LBFGS
 +------------+-------------+-------------+-----------------+ <-- min LBFGS
 |  previous  |    0.000000 |    0.007092 |    -1681.031776 | <-- min LBFGS
 | trial step |    1.000000 |    0.002856 |    -1681.031963 | <-- min LBFGS
 |  line step |    1.674406 |    0.001482 |    -1681.032034 | <-- min LBFGS
 |  quad step |    2.401534 |    0.000015 |    -1681.032061 | <-- min LBFGS
 +------------+-------------+-------------+-----------------+ <-- min LBFGS

 LBFGS: finished iteration     1 with enthalpy= -1.68103206E+003 eV

 +-----------+-----------------+-----------------+------------+-----+ <-- LBFGS
 | Parameter |      value      |    tolerance    |    units   | OK? | <-- LBFGS
 +-----------+-----------------+-----------------+------------+-----+ <-- LBFGS
 |  dE/ion   |   2.853296E-004 |   2.000000E-005 |         eV | No  | <-- LBFGS
 |   Smax    |   3.105312E-003 |   1.000000E-001 |        GPa | Yes | <-- LBFGS
 +-----------+-----------------+-----------------+------------+-----+ <-- LBFGS

 Starting LBFGS iteration          2 ...

 +------------+-------------+-------------+-----------------+ <-- min LBFGS
 |    Step    |   lambda    |   F.delta'  |    enthalpy     | <-- min LBFGS
 +------------+-------------+-------------+-----------------+ <-- min LBFGS
 |  previous  |    0.000000 |    0.000015 |    -1681.032061 | <-- min LBFGS
 +------------+-------------+-------------+-----------------+ <-- min LBFGS

 LBFGS: starting iteration         2 with trial guess (lambda=  1.000000)

[...]

------------------------------------------------------------------------ <-- SCF
SCF loop      Energy           Fermi           Energy gain       Timer   <-- SCF
                               energy          per atom          (sec)   <-- SCF
------------------------------------------------------------------------ <-- SCF
Initial  -1.68102676E+003  0.00000000E+000                        85.78  <-- SCF
      1  -1.68103206E+003  4.02454552E+000   5.30108164E-003      86.14  <-- SCF
      2  -1.68103206E+003  4.02454552E+000   5.88359567E-009      87.17  <-- SCF
      3  -1.68103206E+003  4.02532103E+000   4.67332283E-007      88.22  <-- SCF
      4  -1.68103206E+003  4.02483684E+000  -6.73428085E-007      89.26  <-- SCF
------------------------------------------------------------------------ <-- SCF

Integrated Spin Density     =   -0.173625E-12 hbar/2
Integrated |Spin Density|   =    0.173696E-12 hbar/2

Final energy, E             =  -1681.026758644     eV
Final free energy (E-TS)    =  -1681.032059817     eV
(energies not corrected for finite basis set)

NB est. 0K energy (E-0.5TS)      =  -1681.029409231     eV

[...]

 +------------+-------------+-------------+-----------------+ <-- min LBFGS
 |    Step    |   lambda    |   F.delta'  |    enthalpy     | <-- min LBFGS
 +------------+-------------+-------------+-----------------+ <-- min LBFGS
 |  previous  |    0.000000 |    0.000015 |    -1681.032061 | <-- min LBFGS
 | trial step |    1.000000 |    0.000022 |    -1681.032061 | <-- min LBFGS
 +------------+-------------+-------------+-----------------+ <-- min LBFGS

 LBFGS: finished iteration     2 with enthalpy= -1.68103206E+003 eV

 +-----------+-----------------+-----------------+------------+-----+ <-- LBFGS
 | Parameter |      value      |    tolerance    |    units   | OK? | <-- LBFGS
 +-----------+-----------------+-----------------+------------+-----+ <-- LBFGS
 |  dE/ion   |   2.032847E-008 |   2.000000E-005 |         eV | Yes | <-- LBFGS
 |   Smax    |   4.621776E-003 |   1.000000E-001 |        GPa | Yes | <-- LBFGS
 +-----------+-----------------+-----------------+------------+-----+ <-- LBFGS

 LBFGS: Geometry optimization completed successfully.

 LBFGS: Final Configuration:

                                      Unit Cell
        Real Lattice(A)              Reciprocal Lattice(1/A)
     1.8108878     1.8108878     0.0000000        1.734835599   1.734835599  -1.734835599
     1.8108878     0.0000000     1.8108878        1.734835599  -1.734835599   1.734835599
     0.0000000     1.8108878     1.8108878       -1.734835599   1.734835599   1.734835599

                       Lattice parameters(A)       Cell Angles
                    a =      2.560982          alpha =   60.000000
                    b =      2.560982          beta  =   60.000000
                    c =      2.560982          gamma =   60.000000

                Current cell volume =            11.876942 A**3
                            density =             5.350367 amu/A**3
                                    =             8.884493 g/cm^3

 LBFGS: Final Enthalpy     = -1.68103206E+003 eV
 LBFGS: Final bulk modulus unchanged from initial value

 ******************************** Symmetrised Forces ********************************
 *                           Cartesian components (eV/A)                            *
 *                         x                    y                    z              *
 * Cu              1      0.00000              0.00000              0.00000         *

 *********** Symmetrised Stress Tensor ***********
 *          Cartesian components (GPa)           *
 *             x             y             z     *
 *  x     -0.004622     -0.000000      0.000000  *
 *  y     -0.000000     -0.004622      0.000000  *
 *  z      0.000000      0.000000     -0.004622  *
 *  Pressure:    0.0046                          *

 Pseudo atomic calculation performed for Cu 3d10 4s1

 Converged in 46 iterations to a total energy of -1676.8993 eV
Charge spilling parameter for spin component 1 = 0.09%
Charge spilling parameter for spin component 2 = 0.09%

                   Orbital Populations
     Ion    Atom   Orbital              Up        Down      Spin
     Cu     1      Dzz                  0.981     0.981     0.000
     Cu     1      Dzy                  0.942     0.942     0.000
     Cu     1      Dzx                  0.982     0.982     0.000
     Cu     1      Dxx-yy               0.976     0.976     0.000
     Cu     1      Dxy                  0.978     0.978     0.000
     Cu     1      S                    0.378     0.378    -0.000
     Cu     1      Px                   0.105     0.105     0.000
     Cu     1      Py                   0.072     0.072     0.000
     Cu     1      Pz                   0.085     0.085     0.000
                           Total:       5.500     5.500    -0.000

     Atomic Populations (Mulliken)
Species          Ion Spin      s      p      d      f     Total  Charge(e)   Spin(hbar/2)
  Cu              1   up:     0.38   0.26   4.86   0.00   5.50     0.00       -0.00
                  1   dn:     0.38   0.26   4.86   0.00   5.50

                 Bond                   Population        Spin       Length (A)

Writing analysis data to Cu.castep_bin

Writing model to Cu.check

 A BibTeX formatted list of references used in this run has been written to
 Cu.bib

Initialisation time =      7.96 s
Calculation time    =     86.97 s
Finalisation time   =      0.40 s
Total time          =     95.34 s